# GaS D2 (metal monovacancy): 288 atoms removed = 5.0000% of total | seed 101 | d_min 6.50 A | 50/50 deck split enforced | minimize + NVT-equilibrate before the NVE velocity dump
# generated by make_vdos_structures.py v2 on 2026-07-21 07:46

5472 atoms
2 atom types

0.0000000000 132.8482969500 xlo xhi
0.0000000000 138.0600000000 ylo yhi
0.0000000000 106.0000000000 zlo zhi

Masses

1 69.7230
2 32.0600

Atoms # atomic

1 2 0.1053571429 0.1053571429 52.7592000000
2 1 1.2124500000 2.0228571429 51.8097000000
3 2 3.4265303571 2.0228571429 52.7592000000
4 1 4.5336232143 0.1053571429 51.8097000000
5 2 0.1053571429 0.1053571429 48.6232000000
6 2 3.4265303571 2.0228571429 48.6232000000
7 1 4.5336232143 0.1053571429 49.5727000000
8 2 0.1053571429 3.9403571429 52.7592000000
9 1 1.2124500000 5.8578571429 51.8097000000
10 2 3.4265303571 5.8578571429 52.7592000000
11 1 4.5336232143 3.9403571429 51.8097000000
12 2 0.1053571429 3.9403571429 48.6232000000
13 1 1.2124500000 5.8578571429 49.5727000000
14 2 3.4265303571 5.8578571429 48.6232000000
15 1 4.5336232143 3.9403571429 49.5727000000
16 2 6.7478089286 0.1053571429 52.7592000000
17 1 7.8547964286 2.0228571429 51.8097000000
18 2 10.0689821429 2.0228571429 52.7592000000
19 1 11.1760750000 0.1053571429 51.8097000000
20 2 6.7478089286 0.1053571429 48.6232000000
21 1 7.8547964286 2.0228571429 49.5727000000
22 2 10.0689821429 2.0228571429 48.6232000000
23 1 11.1760750000 0.1053571429 49.5727000000
24 2 6.7478089286 3.9403571429 52.7592000000
25 1 7.8547964286 5.8578571429 51.8097000000
26 2 10.0689821429 5.8578571429 52.7592000000
27 2 6.7478089286 3.9403571429 48.6232000000
28 1 7.8547964286 5.8578571429 49.5727000000
29 2 10.0689821429 5.8578571429 48.6232000000
30 1 11.1760750000 3.9403571429 49.5727000000
31 2 13.3901868379 0.1053571429 52.7592000000
32 1 14.4972796950 2.0228571429 51.8097000000
33 2 16.7113600521 2.0228571429 52.7592000000
34 1 17.8184529093 0.1053571429 51.8097000000
35 2 13.3901868379 0.1053571429 48.6232000000
36 1 14.4972796950 2.0228571429 49.5727000000
37 2 16.7113600521 2.0228571429 48.6232000000
38 1 17.8184529093 0.1053571429 49.5727000000
39 2 13.3901868379 3.9403571429 52.7592000000
40 1 14.4972796950 5.8578571429 51.8097000000
41 2 16.7113600521 5.8578571429 52.7592000000
42 1 17.8184529093 3.9403571429 51.8097000000
43 2 13.3901868379 3.9403571429 48.6232000000
44 1 14.4972796950 5.8578571429 49.5727000000
45 2 16.7113600521 5.8578571429 48.6232000000
46 2 20.0326386236 0.1053571429 52.7592000000
47 1 21.1396261236 2.0228571429 51.8097000000
48 2 23.3538118379 2.0228571429 52.7592000000
49 2 20.0326386236 0.1053571429 48.6232000000
50 1 21.1396261236 2.0228571429 49.5727000000
51 2 23.3538118379 2.0228571429 48.6232000000
52 1 24.4609046950 0.1053571429 49.5727000000
53 2 20.0326386236 3.9403571429 52.7592000000
54 1 21.1396261236 5.8578571429 51.8097000000
55 2 23.3538118379 5.8578571429 52.7592000000
56 1 24.4609046950 3.9403571429 51.8097000000
57 2 20.0326386236 3.9403571429 48.6232000000
58 1 21.1396261236 5.8578571429 49.5727000000
59 2 23.3538118379 5.8578571429 48.6232000000
60 1 24.4609046950 3.9403571429 49.5727000000
61 2 26.6750165329 0.1053571429 52.7592000000
62 1 27.7821093900 2.0228571429 51.8097000000
63 2 29.9961897471 2.0228571429 52.7592000000
64 2 26.6750165329 0.1053571429 48.6232000000
65 1 27.7821093900 2.0228571429 49.5727000000
66 2 29.9961897471 2.0228571429 48.6232000000
67 1 31.1032826043 0.1053571429 49.5727000000
68 2 26.6750165329 3.9403571429 52.7592000000
69 1 27.7821093900 5.8578571429 51.8097000000
70 2 29.9961897471 5.8578571429 52.7592000000
71 1 31.1032826043 3.9403571429 51.8097000000
72 2 26.6750165329 3.9403571429 48.6232000000
73 1 27.7821093900 5.8578571429 49.5727000000
74 2 29.9961897471 5.8578571429 48.6232000000
75 1 31.1032826043 3.9403571429 49.5727000000
76 2 33.3174683186 0.1053571429 52.7592000000
77 1 34.4244558186 2.0228571429 51.8097000000
78 2 36.6386415329 2.0228571429 52.7592000000
79 1 37.7457343900 0.1053571429 51.8097000000
80 2 33.3174683186 0.1053571429 48.6232000000
81 1 34.4244558186 2.0228571429 49.5727000000
82 2 36.6386415329 2.0228571429 48.6232000000
83 1 37.7457343900 0.1053571429 49.5727000000
84 2 33.3174683186 3.9403571429 52.7592000000
85 1 34.4244558186 5.8578571429 51.8097000000
86 2 36.6386415329 5.8578571429 52.7592000000
87 1 37.7457343900 3.9403571429 51.8097000000
88 2 33.3174683186 3.9403571429 48.6232000000
89 2 36.6386415329 5.8578571429 48.6232000000
90 1 37.7457343900 3.9403571429 49.5727000000
91 2 39.9598462279 0.1053571429 52.7592000000
92 1 41.0669390850 2.0228571429 51.8097000000
93 2 43.2810194421 2.0228571429 52.7592000000
94 1 44.3881122993 0.1053571429 51.8097000000
95 2 39.9598462279 0.1053571429 48.6232000000
96 1 41.0669390850 2.0228571429 49.5727000000
97 2 43.2810194421 2.0228571429 48.6232000000
98 1 44.3881122993 0.1053571429 49.5727000000
99 2 39.9598462279 3.9403571429 52.7592000000
100 1 41.0669390850 5.8578571429 51.8097000000
101 2 43.2810194421 5.8578571429 52.7592000000
102 2 39.9598462279 3.9403571429 48.6232000000
103 1 41.0669390850 5.8578571429 49.5727000000
104 2 43.2810194421 5.8578571429 48.6232000000
105 1 44.3881122993 3.9403571429 49.5727000000
106 2 46.6022980136 0.1053571429 52.7592000000
107 1 47.7092855136 2.0228571429 51.8097000000
108 2 49.9234712279 2.0228571429 52.7592000000
109 2 46.6022980136 0.1053571429 48.6232000000
110 1 47.7092855136 2.0228571429 49.5727000000
111 2 49.9234712279 2.0228571429 48.6232000000
112 1 51.0305640850 0.1053571429 49.5727000000
113 2 46.6022980136 3.9403571429 52.7592000000
114 1 47.7092855136 5.8578571429 51.8097000000
115 2 49.9234712279 5.8578571429 52.7592000000
116 1 51.0305640850 3.9403571429 51.8097000000
117 2 46.6022980136 3.9403571429 48.6232000000
118 1 47.7092855136 5.8578571429 49.5727000000
119 2 49.9234712279 5.8578571429 48.6232000000
120 1 51.0305640850 3.9403571429 49.5727000000
121 2 53.2446759229 0.1053571429 52.7592000000
122 1 54.3517687800 2.0228571429 51.8097000000
123 2 56.5658491371 2.0228571429 52.7592000000
124 1 57.6729419943 0.1053571429 51.8097000000
125 2 53.2446759229 0.1053571429 48.6232000000
126 1 54.3517687800 2.0228571429 49.5727000000
127 2 56.5658491371 2.0228571429 48.6232000000
128 1 57.6729419943 0.1053571429 49.5727000000
129 2 53.2446759229 3.9403571429 52.7592000000
130 1 54.3517687800 5.8578571429 51.8097000000
131 2 56.5658491371 5.8578571429 52.7592000000
132 1 57.6729419943 3.9403571429 51.8097000000
133 2 53.2446759229 3.9403571429 48.6232000000
134 1 54.3517687800 5.8578571429 49.5727000000
135 2 56.5658491371 5.8578571429 48.6232000000
136 2 59.8871277086 0.1053571429 52.7592000000
137 1 60.9941152086 2.0228571429 51.8097000000
138 2 63.2083009229 2.0228571429 52.7592000000
139 1 64.3153937800 0.1053571429 51.8097000000
140 2 59.8871277086 0.1053571429 48.6232000000
141 1 60.9941152086 2.0228571429 49.5727000000
142 2 63.2083009229 2.0228571429 48.6232000000
143 1 64.3153937800 0.1053571429 49.5727000000
144 2 59.8871277086 3.9403571429 52.7592000000
145 1 60.9941152086 5.8578571429 51.8097000000
146 2 63.2083009229 5.8578571429 52.7592000000
147 1 64.3153937800 3.9403571429 51.8097000000
148 2 59.8871277086 3.9403571429 48.6232000000
149 1 60.9941152086 5.8578571429 49.5727000000
150 2 63.2083009229 5.8578571429 48.6232000000
151 1 64.3153937800 3.9403571429 49.5727000000
152 2 66.5295056179 0.1053571429 52.7592000000
153 1 67.6365984750 2.0228571429 51.8097000000
154 2 69.8506788321 2.0228571429 52.7592000000
155 1 70.9577716893 0.1053571429 51.8097000000
156 2 66.5295056179 0.1053571429 48.6232000000
157 1 67.6365984750 2.0228571429 49.5727000000
158 2 69.8506788321 2.0228571429 48.6232000000
159 1 70.9577716893 0.1053571429 49.5727000000
160 2 66.5295056179 3.9403571429 52.7592000000
161 2 69.8506788321 5.8578571429 52.7592000000
162 1 70.9577716893 3.9403571429 51.8097000000
163 2 66.5295056179 3.9403571429 48.6232000000
164 1 67.6365984750 5.8578571429 49.5727000000
165 2 69.8506788321 5.8578571429 48.6232000000
166 1 70.9577716893 3.9403571429 49.5727000000
167 2 73.1719574036 0.1053571429 52.7592000000
168 1 74.2789449036 2.0228571429 51.8097000000
169 2 76.4931306179 2.0228571429 52.7592000000
170 1 77.6002234750 0.1053571429 51.8097000000
171 2 73.1719574036 0.1053571429 48.6232000000
172 1 74.2789449036 2.0228571429 49.5727000000
173 2 76.4931306179 2.0228571429 48.6232000000
174 1 77.6002234750 0.1053571429 49.5727000000
175 2 73.1719574036 3.9403571429 52.7592000000
176 2 76.4931306179 5.8578571429 52.7592000000
177 1 77.6002234750 3.9403571429 51.8097000000
178 2 73.1719574036 3.9403571429 48.6232000000
179 1 74.2789449036 5.8578571429 49.5727000000
180 2 76.4931306179 5.8578571429 48.6232000000
181 1 77.6002234750 3.9403571429 49.5727000000
182 2 79.8143353129 0.1053571429 52.7592000000
183 1 80.9214281700 2.0228571429 51.8097000000
184 2 83.1355085271 2.0228571429 52.7592000000
185 1 84.2426013843 0.1053571429 51.8097000000
186 2 79.8143353129 0.1053571429 48.6232000000
187 1 80.9214281700 2.0228571429 49.5727000000
188 2 83.1355085271 2.0228571429 48.6232000000
189 1 84.2426013843 0.1053571429 49.5727000000
190 2 79.8143353129 3.9403571429 52.7592000000
191 1 80.9214281700 5.8578571429 51.8097000000
192 2 83.1355085271 5.8578571429 52.7592000000
193 1 84.2426013843 3.9403571429 51.8097000000
194 2 79.8143353129 3.9403571429 48.6232000000
195 2 83.1355085271 5.8578571429 48.6232000000
196 1 84.2426013843 3.9403571429 49.5727000000
197 2 86.4567870986 0.1053571429 52.7592000000
198 1 87.5637745986 2.0228571429 51.8097000000
199 2 89.7779603129 2.0228571429 52.7592000000
200 1 90.8850531700 0.1053571429 51.8097000000
201 2 86.4567870986 0.1053571429 48.6232000000
202 1 87.5637745986 2.0228571429 49.5727000000
203 2 89.7779603129 2.0228571429 48.6232000000
204 1 90.8850531700 0.1053571429 49.5727000000
205 2 86.4567870986 3.9403571429 52.7592000000
206 2 89.7779603129 5.8578571429 52.7592000000
207 1 90.8850531700 3.9403571429 51.8097000000
208 2 86.4567870986 3.9403571429 48.6232000000
209 1 87.5637745986 5.8578571429 49.5727000000
210 2 89.7779603129 5.8578571429 48.6232000000
211 1 90.8850531700 3.9403571429 49.5727000000
212 2 93.0991650079 0.1053571429 52.7592000000
213 1 94.2062578650 2.0228571429 51.8097000000
214 2 96.4203382221 2.0228571429 52.7592000000
215 1 97.5274310793 0.1053571429 51.8097000000
216 2 93.0991650079 0.1053571429 48.6232000000
217 1 94.2062578650 2.0228571429 49.5727000000
218 2 96.4203382221 2.0228571429 48.6232000000
219 1 97.5274310793 0.1053571429 49.5727000000
220 2 93.0991650079 3.9403571429 52.7592000000
221 2 96.4203382221 5.8578571429 52.7592000000
222 1 97.5274310793 3.9403571429 51.8097000000
223 2 93.0991650079 3.9403571429 48.6232000000
224 1 94.2062578650 5.8578571429 49.5727000000
225 2 96.4203382221 5.8578571429 48.6232000000
226 1 97.5274310793 3.9403571429 49.5727000000
227 2 99.7416167936 0.1053571429 52.7592000000
228 2 103.0627900079 2.0228571429 52.7592000000
229 1 104.1698828650 0.1053571429 51.8097000000
230 2 99.7416167936 0.1053571429 48.6232000000
231 1 100.8486042936 2.0228571429 49.5727000000
232 2 103.0627900079 2.0228571429 48.6232000000
233 1 104.1698828650 0.1053571429 49.5727000000
234 2 99.7416167936 3.9403571429 52.7592000000
235 1 100.8486042936 5.8578571429 51.8097000000
236 2 103.0627900079 5.8578571429 52.7592000000
237 1 104.1698828650 3.9403571429 51.8097000000
238 2 99.7416167936 3.9403571429 48.6232000000
239 1 100.8486042936 5.8578571429 49.5727000000
240 2 103.0627900079 5.8578571429 48.6232000000
241 1 104.1698828650 3.9403571429 49.5727000000
242 2 106.3839947029 0.1053571429 52.7592000000
243 1 107.4910875600 2.0228571429 51.8097000000
244 2 109.7051679171 2.0228571429 52.7592000000
245 1 110.8122607743 0.1053571429 51.8097000000
246 2 106.3839947029 0.1053571429 48.6232000000
247 1 107.4910875600 2.0228571429 49.5727000000
248 2 109.7051679171 2.0228571429 48.6232000000
249 1 110.8122607743 0.1053571429 49.5727000000
250 2 106.3839947029 3.9403571429 52.7592000000
251 1 107.4910875600 5.8578571429 51.8097000000
252 2 109.7051679171 5.8578571429 52.7592000000
253 2 106.3839947029 3.9403571429 48.6232000000
254 1 107.4910875600 5.8578571429 49.5727000000
255 2 109.7051679171 5.8578571429 48.6232000000
256 1 110.8122607743 3.9403571429 49.5727000000
257 2 113.0264464886 0.1053571429 52.7592000000
258 1 114.1334339886 2.0228571429 51.8097000000
259 2 116.3476197029 2.0228571429 52.7592000000
260 1 117.4547125600 0.1053571429 51.8097000000
261 2 113.0264464886 0.1053571429 48.6232000000
262 1 114.1334339886 2.0228571429 49.5727000000
263 2 116.3476197029 2.0228571429 48.6232000000
264 1 117.4547125600 0.1053571429 49.5727000000
265 2 113.0264464886 3.9403571429 52.7592000000
266 1 114.1334339886 5.8578571429 51.8097000000
267 2 116.3476197029 5.8578571429 52.7592000000
268 2 113.0264464886 3.9403571429 48.6232000000
269 1 114.1334339886 5.8578571429 49.5727000000
270 2 116.3476197029 5.8578571429 48.6232000000
271 1 117.4547125600 3.9403571429 49.5727000000
272 2 119.6688243979 0.1053571429 52.7592000000
273 1 120.7759172550 2.0228571429 51.8097000000
274 2 122.9899976121 2.0228571429 52.7592000000
275 2 119.6688243979 0.1053571429 48.6232000000
276 1 120.7759172550 2.0228571429 49.5727000000
277 2 122.9899976121 2.0228571429 48.6232000000
278 1 124.0970904693 0.1053571429 49.5727000000
279 2 119.6688243979 3.9403571429 52.7592000000
280 1 120.7759172550 5.8578571429 51.8097000000
281 2 122.9899976121 5.8578571429 52.7592000000
282 1 124.0970904693 3.9403571429 51.8097000000
283 2 119.6688243979 3.9403571429 48.6232000000
284 1 120.7759172550 5.8578571429 49.5727000000
285 2 122.9899976121 5.8578571429 48.6232000000
286 1 124.0970904693 3.9403571429 49.5727000000
287 2 126.3112761836 0.1053571429 52.7592000000
288 1 127.4182636836 2.0228571429 51.8097000000
289 2 129.6324493979 2.0228571429 52.7592000000
290 1 130.7395422550 0.1053571429 51.8097000000
291 2 126.3112761836 0.1053571429 48.6232000000
292 1 127.4182636836 2.0228571429 49.5727000000
293 2 129.6324493979 2.0228571429 48.6232000000
294 1 130.7395422550 0.1053571429 49.5727000000
295 2 126.3112761836 3.9403571429 52.7592000000
296 1 127.4182636836 5.8578571429 51.8097000000
297 2 129.6324493979 5.8578571429 52.7592000000
298 1 130.7395422550 3.9403571429 51.8097000000
299 2 126.3112761836 3.9403571429 48.6232000000
300 1 127.4182636836 5.8578571429 49.5727000000
301 2 129.6324493979 5.8578571429 48.6232000000
302 1 130.7395422550 3.9403571429 49.5727000000
303 2 0.1053571429 7.7753571429 52.7592000000
304 1 1.2124500000 9.6928571429 51.8097000000
305 2 3.4265303571 9.6928571429 52.7592000000
306 1 4.5336232143 7.7753571429 51.8097000000
307 2 0.1053571429 7.7753571429 48.6232000000
308 2 3.4265303571 9.6928571429 48.6232000000
309 1 4.5336232143 7.7753571429 49.5727000000
310 2 0.1053571429 11.6103571429 52.7592000000
311 1 1.2124500000 13.5278571429 51.8097000000
312 2 3.4265303571 13.5278571429 52.7592000000
313 1 4.5336232143 11.6103571429 51.8097000000
314 2 0.1053571429 11.6103571429 48.6232000000
315 1 1.2124500000 13.5278571429 49.5727000000
316 2 3.4265303571 13.5278571429 48.6232000000
317 1 4.5336232143 11.6103571429 49.5727000000
318 2 6.7478089286 7.7753571429 52.7592000000
319 1 7.8547964286 9.6928571429 51.8097000000
320 2 10.0689821429 9.6928571429 52.7592000000
321 1 11.1760750000 7.7753571429 51.8097000000
322 2 6.7478089286 7.7753571429 48.6232000000
323 1 7.8547964286 9.6928571429 49.5727000000
324 2 10.0689821429 9.6928571429 48.6232000000
325 1 11.1760750000 7.7753571429 49.5727000000
326 2 6.7478089286 11.6103571429 52.7592000000
327 1 7.8547964286 13.5278571429 51.8097000000
328 2 10.0689821429 13.5278571429 52.7592000000
329 2 6.7478089286 11.6103571429 48.6232000000
330 1 7.8547964286 13.5278571429 49.5727000000
331 2 10.0689821429 13.5278571429 48.6232000000
332 1 11.1760750000 11.6103571429 49.5727000000
333 2 13.3901868379 7.7753571429 52.7592000000
334 1 14.4972796950 9.6928571429 51.8097000000
335 2 16.7113600521 9.6928571429 52.7592000000
336 1 17.8184529093 7.7753571429 51.8097000000
337 2 13.3901868379 7.7753571429 48.6232000000
338 1 14.4972796950 9.6928571429 49.5727000000
339 2 16.7113600521 9.6928571429 48.6232000000
340 1 17.8184529093 7.7753571429 49.5727000000
341 2 13.3901868379 11.6103571429 52.7592000000
342 1 14.4972796950 13.5278571429 51.8097000000
343 2 16.7113600521 13.5278571429 52.7592000000
344 1 17.8184529093 11.6103571429 51.8097000000
345 2 13.3901868379 11.6103571429 48.6232000000
346 1 14.4972796950 13.5278571429 49.5727000000
347 2 16.7113600521 13.5278571429 48.6232000000
348 2 20.0326386236 7.7753571429 52.7592000000
349 1 21.1396261236 9.6928571429 51.8097000000
350 2 23.3538118379 9.6928571429 52.7592000000
351 1 24.4609046950 7.7753571429 51.8097000000
352 2 20.0326386236 7.7753571429 48.6232000000
353 1 21.1396261236 9.6928571429 49.5727000000
354 2 23.3538118379 9.6928571429 48.6232000000
355 1 24.4609046950 7.7753571429 49.5727000000
356 2 20.0326386236 11.6103571429 52.7592000000
357 1 21.1396261236 13.5278571429 51.8097000000
358 2 23.3538118379 13.5278571429 52.7592000000
359 2 20.0326386236 11.6103571429 48.6232000000
360 1 21.1396261236 13.5278571429 49.5727000000
361 2 23.3538118379 13.5278571429 48.6232000000
362 1 24.4609046950 11.6103571429 49.5727000000
363 2 26.6750165329 7.7753571429 52.7592000000
364 1 27.7821093900 9.6928571429 51.8097000000
365 2 29.9961897471 9.6928571429 52.7592000000
366 1 31.1032826043 7.7753571429 51.8097000000
367 2 26.6750165329 7.7753571429 48.6232000000
368 1 27.7821093900 9.6928571429 49.5727000000
369 2 29.9961897471 9.6928571429 48.6232000000
370 1 31.1032826043 7.7753571429 49.5727000000
371 2 26.6750165329 11.6103571429 52.7592000000
372 1 27.7821093900 13.5278571429 51.8097000000
373 2 29.9961897471 13.5278571429 52.7592000000
374 1 31.1032826043 11.6103571429 51.8097000000
375 2 26.6750165329 11.6103571429 48.6232000000
376 1 27.7821093900 13.5278571429 49.5727000000
377 2 29.9961897471 13.5278571429 48.6232000000
378 1 31.1032826043 11.6103571429 49.5727000000
379 2 33.3174683186 7.7753571429 52.7592000000
380 1 34.4244558186 9.6928571429 51.8097000000
381 2 36.6386415329 9.6928571429 52.7592000000
382 1 37.7457343900 7.7753571429 51.8097000000
383 2 33.3174683186 7.7753571429 48.6232000000
384 1 34.4244558186 9.6928571429 49.5727000000
385 2 36.6386415329 9.6928571429 48.6232000000
386 1 37.7457343900 7.7753571429 49.5727000000
387 2 33.3174683186 11.6103571429 52.7592000000
388 1 34.4244558186 13.5278571429 51.8097000000
389 2 36.6386415329 13.5278571429 52.7592000000
390 1 37.7457343900 11.6103571429 51.8097000000
391 2 33.3174683186 11.6103571429 48.6232000000
392 1 34.4244558186 13.5278571429 49.5727000000
393 2 36.6386415329 13.5278571429 48.6232000000
394 1 37.7457343900 11.6103571429 49.5727000000
395 2 39.9598462279 7.7753571429 52.7592000000
396 1 41.0669390850 9.6928571429 51.8097000000
397 2 43.2810194421 9.6928571429 52.7592000000
398 1 44.3881122993 7.7753571429 51.8097000000
399 2 39.9598462279 7.7753571429 48.6232000000
400 1 41.0669390850 9.6928571429 49.5727000000
401 2 43.2810194421 9.6928571429 48.6232000000
402 1 44.3881122993 7.7753571429 49.5727000000
403 2 39.9598462279 11.6103571429 52.7592000000
404 1 41.0669390850 13.5278571429 51.8097000000
405 2 43.2810194421 13.5278571429 52.7592000000
406 1 44.3881122993 11.6103571429 51.8097000000
407 2 39.9598462279 11.6103571429 48.6232000000
408 1 41.0669390850 13.5278571429 49.5727000000
409 2 43.2810194421 13.5278571429 48.6232000000
410 1 44.3881122993 11.6103571429 49.5727000000
411 2 46.6022980136 7.7753571429 52.7592000000
412 1 47.7092855136 9.6928571429 51.8097000000
413 2 49.9234712279 9.6928571429 52.7592000000
414 1 51.0305640850 7.7753571429 51.8097000000
415 2 46.6022980136 7.7753571429 48.6232000000
416 1 47.7092855136 9.6928571429 49.5727000000
417 2 49.9234712279 9.6928571429 48.6232000000
418 2 46.6022980136 11.6103571429 52.7592000000
419 1 47.7092855136 13.5278571429 51.8097000000
420 2 49.9234712279 13.5278571429 52.7592000000
421 1 51.0305640850 11.6103571429 51.8097000000
422 2 46.6022980136 11.6103571429 48.6232000000
423 2 49.9234712279 13.5278571429 48.6232000000
424 1 51.0305640850 11.6103571429 49.5727000000
425 2 53.2446759229 7.7753571429 52.7592000000
426 1 54.3517687800 9.6928571429 51.8097000000
427 2 56.5658491371 9.6928571429 52.7592000000
428 1 57.6729419943 7.7753571429 51.8097000000
429 2 53.2446759229 7.7753571429 48.6232000000
430 1 54.3517687800 9.6928571429 49.5727000000
431 2 56.5658491371 9.6928571429 48.6232000000
432 1 57.6729419943 7.7753571429 49.5727000000
433 2 53.2446759229 11.6103571429 52.7592000000
434 1 54.3517687800 13.5278571429 51.8097000000
435 2 56.5658491371 13.5278571429 52.7592000000
436 1 57.6729419943 11.6103571429 51.8097000000
437 2 53.2446759229 11.6103571429 48.6232000000
438 2 56.5658491371 13.5278571429 48.6232000000
439 1 57.6729419943 11.6103571429 49.5727000000
440 2 59.8871277086 7.7753571429 52.7592000000
441 1 60.9941152086 9.6928571429 51.8097000000
442 2 63.2083009229 9.6928571429 52.7592000000
443 1 64.3153937800 7.7753571429 51.8097000000
444 2 59.8871277086 7.7753571429 48.6232000000
445 2 63.2083009229 9.6928571429 48.6232000000
446 1 64.3153937800 7.7753571429 49.5727000000
447 2 59.8871277086 11.6103571429 52.7592000000
448 1 60.9941152086 13.5278571429 51.8097000000
449 2 63.2083009229 13.5278571429 52.7592000000
450 1 64.3153937800 11.6103571429 51.8097000000
451 2 59.8871277086 11.6103571429 48.6232000000
452 1 60.9941152086 13.5278571429 49.5727000000
453 2 63.2083009229 13.5278571429 48.6232000000
454 1 64.3153937800 11.6103571429 49.5727000000
455 2 66.5295056179 7.7753571429 52.7592000000
456 1 67.6365984750 9.6928571429 51.8097000000
457 2 69.8506788321 9.6928571429 52.7592000000
458 1 70.9577716893 7.7753571429 51.8097000000
459 2 66.5295056179 7.7753571429 48.6232000000
460 1 67.6365984750 9.6928571429 49.5727000000
461 2 69.8506788321 9.6928571429 48.6232000000
462 1 70.9577716893 7.7753571429 49.5727000000
463 2 66.5295056179 11.6103571429 52.7592000000
464 1 67.6365984750 13.5278571429 51.8097000000
465 2 69.8506788321 13.5278571429 52.7592000000
466 1 70.9577716893 11.6103571429 51.8097000000
467 2 66.5295056179 11.6103571429 48.6232000000
468 1 67.6365984750 13.5278571429 49.5727000000
469 2 69.8506788321 13.5278571429 48.6232000000
470 2 73.1719574036 7.7753571429 52.7592000000
471 1 74.2789449036 9.6928571429 51.8097000000
472 2 76.4931306179 9.6928571429 52.7592000000
473 1 77.6002234750 7.7753571429 51.8097000000
474 2 73.1719574036 7.7753571429 48.6232000000
475 1 74.2789449036 9.6928571429 49.5727000000
476 2 76.4931306179 9.6928571429 48.6232000000
477 1 77.6002234750 7.7753571429 49.5727000000
478 2 73.1719574036 11.6103571429 52.7592000000
479 1 74.2789449036 13.5278571429 51.8097000000
480 2 76.4931306179 13.5278571429 52.7592000000
481 2 73.1719574036 11.6103571429 48.6232000000
482 1 74.2789449036 13.5278571429 49.5727000000
483 2 76.4931306179 13.5278571429 48.6232000000
484 1 77.6002234750 11.6103571429 49.5727000000
485 2 79.8143353129 7.7753571429 52.7592000000
486 1 80.9214281700 9.6928571429 51.8097000000
487 2 83.1355085271 9.6928571429 52.7592000000
488 1 84.2426013843 7.7753571429 51.8097000000
489 2 79.8143353129 7.7753571429 48.6232000000
490 1 80.9214281700 9.6928571429 49.5727000000
491 2 83.1355085271 9.6928571429 48.6232000000
492 1 84.2426013843 7.7753571429 49.5727000000
493 2 79.8143353129 11.6103571429 52.7592000000
494 1 80.9214281700 13.5278571429 51.8097000000
495 2 83.1355085271 13.5278571429 52.7592000000
496 1 84.2426013843 11.6103571429 51.8097000000
497 2 79.8143353129 11.6103571429 48.6232000000
498 1 80.9214281700 13.5278571429 49.5727000000
499 2 83.1355085271 13.5278571429 48.6232000000
500 2 86.4567870986 7.7753571429 52.7592000000
501 1 87.5637745986 9.6928571429 51.8097000000
502 2 89.7779603129 9.6928571429 52.7592000000
503 1 90.8850531700 7.7753571429 51.8097000000
504 2 86.4567870986 7.7753571429 48.6232000000
505 1 87.5637745986 9.6928571429 49.5727000000
506 2 89.7779603129 9.6928571429 48.6232000000
507 1 90.8850531700 7.7753571429 49.5727000000
508 2 86.4567870986 11.6103571429 52.7592000000
509 1 87.5637745986 13.5278571429 51.8097000000
510 2 89.7779603129 13.5278571429 52.7592000000
511 1 90.8850531700 11.6103571429 51.8097000000
512 2 86.4567870986 11.6103571429 48.6232000000
513 1 87.5637745986 13.5278571429 49.5727000000
514 2 89.7779603129 13.5278571429 48.6232000000
515 1 90.8850531700 11.6103571429 49.5727000000
516 2 93.0991650079 7.7753571429 52.7592000000
517 1 94.2062578650 9.6928571429 51.8097000000
518 2 96.4203382221 9.6928571429 52.7592000000
519 1 97.5274310793 7.7753571429 51.8097000000
520 2 93.0991650079 7.7753571429 48.6232000000
521 1 94.2062578650 9.6928571429 49.5727000000
522 2 96.4203382221 9.6928571429 48.6232000000
523 1 97.5274310793 7.7753571429 49.5727000000
524 2 93.0991650079 11.6103571429 52.7592000000
525 1 94.2062578650 13.5278571429 51.8097000000
526 2 96.4203382221 13.5278571429 52.7592000000
527 1 97.5274310793 11.6103571429 51.8097000000
528 2 93.0991650079 11.6103571429 48.6232000000
529 1 94.2062578650 13.5278571429 49.5727000000
530 2 96.4203382221 13.5278571429 48.6232000000
531 1 97.5274310793 11.6103571429 49.5727000000
532 2 99.7416167936 7.7753571429 52.7592000000
533 1 100.8486042936 9.6928571429 51.8097000000
534 2 103.0627900079 9.6928571429 52.7592000000
535 1 104.1698828650 7.7753571429 51.8097000000
536 2 99.7416167936 7.7753571429 48.6232000000
537 1 100.8486042936 9.6928571429 49.5727000000
538 2 103.0627900079 9.6928571429 48.6232000000
539 1 104.1698828650 7.7753571429 49.5727000000
540 2 99.7416167936 11.6103571429 52.7592000000
541 1 100.8486042936 13.5278571429 51.8097000000
542 2 103.0627900079 13.5278571429 52.7592000000
543 1 104.1698828650 11.6103571429 51.8097000000
544 2 99.7416167936 11.6103571429 48.6232000000
545 1 100.8486042936 13.5278571429 49.5727000000
546 2 103.0627900079 13.5278571429 48.6232000000
547 1 104.1698828650 11.6103571429 49.5727000000
548 2 106.3839947029 7.7753571429 52.7592000000
549 1 107.4910875600 9.6928571429 51.8097000000
550 2 109.7051679171 9.6928571429 52.7592000000
551 1 110.8122607743 7.7753571429 51.8097000000
552 2 106.3839947029 7.7753571429 48.6232000000
553 2 109.7051679171 9.6928571429 48.6232000000
554 1 110.8122607743 7.7753571429 49.5727000000
555 2 106.3839947029 11.6103571429 52.7592000000
556 1 107.4910875600 13.5278571429 51.8097000000
557 2 109.7051679171 13.5278571429 52.7592000000
558 1 110.8122607743 11.6103571429 51.8097000000
559 2 106.3839947029 11.6103571429 48.6232000000
560 1 107.4910875600 13.5278571429 49.5727000000
561 2 109.7051679171 13.5278571429 48.6232000000
562 1 110.8122607743 11.6103571429 49.5727000000
563 2 113.0264464886 7.7753571429 52.7592000000
564 1 114.1334339886 9.6928571429 51.8097000000
565 2 116.3476197029 9.6928571429 52.7592000000
566 1 117.4547125600 7.7753571429 51.8097000000
567 2 113.0264464886 7.7753571429 48.6232000000
568 1 114.1334339886 9.6928571429 49.5727000000
569 2 116.3476197029 9.6928571429 48.6232000000
570 1 117.4547125600 7.7753571429 49.5727000000
571 2 113.0264464886 11.6103571429 52.7592000000
572 1 114.1334339886 13.5278571429 51.8097000000
573 2 116.3476197029 13.5278571429 52.7592000000
574 1 117.4547125600 11.6103571429 51.8097000000
575 2 113.0264464886 11.6103571429 48.6232000000
576 1 114.1334339886 13.5278571429 49.5727000000
577 2 116.3476197029 13.5278571429 48.6232000000
578 2 119.6688243979 7.7753571429 52.7592000000
579 1 120.7759172550 9.6928571429 51.8097000000
580 2 122.9899976121 9.6928571429 52.7592000000
581 1 124.0970904693 7.7753571429 51.8097000000
582 2 119.6688243979 7.7753571429 48.6232000000
583 1 120.7759172550 9.6928571429 49.5727000000
584 2 122.9899976121 9.6928571429 48.6232000000
585 1 124.0970904693 7.7753571429 49.5727000000
586 2 119.6688243979 11.6103571429 52.7592000000
587 1 120.7759172550 13.5278571429 51.8097000000
588 2 122.9899976121 13.5278571429 52.7592000000
589 1 124.0970904693 11.6103571429 51.8097000000
590 2 119.6688243979 11.6103571429 48.6232000000
591 1 120.7759172550 13.5278571429 49.5727000000
592 2 122.9899976121 13.5278571429 48.6232000000
593 1 124.0970904693 11.6103571429 49.5727000000
594 2 126.3112761836 7.7753571429 52.7592000000
595 1 127.4182636836 9.6928571429 51.8097000000
596 2 129.6324493979 9.6928571429 52.7592000000
597 1 130.7395422550 7.7753571429 51.8097000000
598 2 126.3112761836 7.7753571429 48.6232000000
599 2 129.6324493979 9.6928571429 48.6232000000
600 1 130.7395422550 7.7753571429 49.5727000000
601 2 126.3112761836 11.6103571429 52.7592000000
602 1 127.4182636836 13.5278571429 51.8097000000
603 2 129.6324493979 13.5278571429 52.7592000000
604 1 130.7395422550 11.6103571429 51.8097000000
605 2 126.3112761836 11.6103571429 48.6232000000
606 1 127.4182636836 13.5278571429 49.5727000000
607 2 129.6324493979 13.5278571429 48.6232000000
608 1 130.7395422550 11.6103571429 49.5727000000
609 2 0.1053571429 15.4453571429 52.7592000000
610 1 1.2124500000 17.3628571429 51.8097000000
611 2 3.4265303571 17.3628571429 52.7592000000
612 1 4.5336232143 15.4453571429 51.8097000000
613 2 0.1053571429 15.4453571429 48.6232000000
614 1 1.2124500000 17.3628571429 49.5727000000
615 2 3.4265303571 17.3628571429 48.6232000000
616 2 0.1053571429 19.2803571429 52.7592000000
617 2 3.4265303571 21.1978571429 52.7592000000
618 1 4.5336232143 19.2803571429 51.8097000000
619 2 0.1053571429 19.2803571429 48.6232000000
620 1 1.2124500000 21.1978571429 49.5727000000
621 2 3.4265303571 21.1978571429 48.6232000000
622 1 4.5336232143 19.2803571429 49.5727000000
623 2 6.7478089286 15.4453571429 52.7592000000
624 1 7.8547964286 17.3628571429 51.8097000000
625 2 10.0689821429 17.3628571429 52.7592000000
626 1 11.1760750000 15.4453571429 51.8097000000
627 2 6.7478089286 15.4453571429 48.6232000000
628 1 7.8547964286 17.3628571429 49.5727000000
629 2 10.0689821429 17.3628571429 48.6232000000
630 1 11.1760750000 15.4453571429 49.5727000000
631 2 6.7478089286 19.2803571429 52.7592000000
632 1 7.8547964286 21.1978571429 51.8097000000
633 2 10.0689821429 21.1978571429 52.7592000000
634 2 6.7478089286 19.2803571429 48.6232000000
635 1 7.8547964286 21.1978571429 49.5727000000
636 2 10.0689821429 21.1978571429 48.6232000000
637 1 11.1760750000 19.2803571429 49.5727000000
638 2 13.3901868379 15.4453571429 52.7592000000
639 1 14.4972796950 17.3628571429 51.8097000000
640 2 16.7113600521 17.3628571429 52.7592000000
641 1 17.8184529093 15.4453571429 51.8097000000
642 2 13.3901868379 15.4453571429 48.6232000000
643 1 14.4972796950 17.3628571429 49.5727000000
644 2 16.7113600521 17.3628571429 48.6232000000
645 1 17.8184529093 15.4453571429 49.5727000000
646 2 13.3901868379 19.2803571429 52.7592000000
647 1 14.4972796950 21.1978571429 51.8097000000
648 2 16.7113600521 21.1978571429 52.7592000000
649 1 17.8184529093 19.2803571429 51.8097000000
650 2 13.3901868379 19.2803571429 48.6232000000
651 1 14.4972796950 21.1978571429 49.5727000000
652 2 16.7113600521 21.1978571429 48.6232000000
653 1 17.8184529093 19.2803571429 49.5727000000
654 2 20.0326386236 15.4453571429 52.7592000000
655 1 21.1396261236 17.3628571429 51.8097000000
656 2 23.3538118379 17.3628571429 52.7592000000
657 1 24.4609046950 15.4453571429 51.8097000000
658 2 20.0326386236 15.4453571429 48.6232000000
659 2 23.3538118379 17.3628571429 48.6232000000
660 1 24.4609046950 15.4453571429 49.5727000000
661 2 20.0326386236 19.2803571429 52.7592000000
662 1 21.1396261236 21.1978571429 51.8097000000
663 2 23.3538118379 21.1978571429 52.7592000000
664 1 24.4609046950 19.2803571429 51.8097000000
665 2 20.0326386236 19.2803571429 48.6232000000
666 1 21.1396261236 21.1978571429 49.5727000000
667 2 23.3538118379 21.1978571429 48.6232000000
668 1 24.4609046950 19.2803571429 49.5727000000
669 2 26.6750165329 15.4453571429 52.7592000000
670 1 27.7821093900 17.3628571429 51.8097000000
671 2 29.9961897471 17.3628571429 52.7592000000
672 1 31.1032826043 15.4453571429 51.8097000000
673 2 26.6750165329 15.4453571429 48.6232000000
674 1 27.7821093900 17.3628571429 49.5727000000
675 2 29.9961897471 17.3628571429 48.6232000000
676 1 31.1032826043 15.4453571429 49.5727000000
677 2 26.6750165329 19.2803571429 52.7592000000
678 1 27.7821093900 21.1978571429 51.8097000000
679 2 29.9961897471 21.1978571429 52.7592000000
680 1 31.1032826043 19.2803571429 51.8097000000
681 2 26.6750165329 19.2803571429 48.6232000000
682 1 27.7821093900 21.1978571429 49.5727000000
683 2 29.9961897471 21.1978571429 48.6232000000
684 1 31.1032826043 19.2803571429 49.5727000000
685 2 33.3174683186 15.4453571429 52.7592000000
686 2 36.6386415329 17.3628571429 52.7592000000
687 1 37.7457343900 15.4453571429 51.8097000000
688 2 33.3174683186 15.4453571429 48.6232000000
689 1 34.4244558186 17.3628571429 49.5727000000
690 2 36.6386415329 17.3628571429 48.6232000000
691 1 37.7457343900 15.4453571429 49.5727000000
692 2 33.3174683186 19.2803571429 52.7592000000
693 1 34.4244558186 21.1978571429 51.8097000000
694 2 36.6386415329 21.1978571429 52.7592000000
695 1 37.7457343900 19.2803571429 51.8097000000
696 2 33.3174683186 19.2803571429 48.6232000000
697 1 34.4244558186 21.1978571429 49.5727000000
698 2 36.6386415329 21.1978571429 48.6232000000
699 1 37.7457343900 19.2803571429 49.5727000000
700 2 39.9598462279 15.4453571429 52.7592000000
701 1 41.0669390850 17.3628571429 51.8097000000
702 2 43.2810194421 17.3628571429 52.7592000000
703 1 44.3881122993 15.4453571429 51.8097000000
704 2 39.9598462279 15.4453571429 48.6232000000
705 1 41.0669390850 17.3628571429 49.5727000000
706 2 43.2810194421 17.3628571429 48.6232000000
707 1 44.3881122993 15.4453571429 49.5727000000
708 2 39.9598462279 19.2803571429 52.7592000000
709 1 41.0669390850 21.1978571429 51.8097000000
710 2 43.2810194421 21.1978571429 52.7592000000
711 1 44.3881122993 19.2803571429 51.8097000000
712 2 39.9598462279 19.2803571429 48.6232000000
713 1 41.0669390850 21.1978571429 49.5727000000
714 2 43.2810194421 21.1978571429 48.6232000000
715 1 44.3881122993 19.2803571429 49.5727000000
716 2 46.6022980136 15.4453571429 52.7592000000
717 1 47.7092855136 17.3628571429 51.8097000000
718 2 49.9234712279 17.3628571429 52.7592000000
719 1 51.0305640850 15.4453571429 51.8097000000
720 2 46.6022980136 15.4453571429 48.6232000000
721 1 47.7092855136 17.3628571429 49.5727000000
722 2 49.9234712279 17.3628571429 48.6232000000
723 1 51.0305640850 15.4453571429 49.5727000000
724 2 46.6022980136 19.2803571429 52.7592000000
725 1 47.7092855136 21.1978571429 51.8097000000
726 2 49.9234712279 21.1978571429 52.7592000000
727 1 51.0305640850 19.2803571429 51.8097000000
728 2 46.6022980136 19.2803571429 48.6232000000
729 1 47.7092855136 21.1978571429 49.5727000000
730 2 49.9234712279 21.1978571429 48.6232000000
731 2 53.2446759229 15.4453571429 52.7592000000
732 1 54.3517687800 17.3628571429 51.8097000000
733 2 56.5658491371 17.3628571429 52.7592000000
734 1 57.6729419943 15.4453571429 51.8097000000
735 2 53.2446759229 15.4453571429 48.6232000000
736 1 54.3517687800 17.3628571429 49.5727000000
737 2 56.5658491371 17.3628571429 48.6232000000
738 1 57.6729419943 15.4453571429 49.5727000000
739 2 53.2446759229 19.2803571429 52.7592000000
740 1 54.3517687800 21.1978571429 51.8097000000
741 2 56.5658491371 21.1978571429 52.7592000000
742 2 53.2446759229 19.2803571429 48.6232000000
743 1 54.3517687800 21.1978571429 49.5727000000
744 2 56.5658491371 21.1978571429 48.6232000000
745 1 57.6729419943 19.2803571429 49.5727000000
746 2 59.8871277086 15.4453571429 52.7592000000
747 1 60.9941152086 17.3628571429 51.8097000000
748 2 63.2083009229 17.3628571429 52.7592000000
749 2 59.8871277086 15.4453571429 48.6232000000
750 1 60.9941152086 17.3628571429 49.5727000000
751 2 63.2083009229 17.3628571429 48.6232000000
752 1 64.3153937800 15.4453571429 49.5727000000
753 2 59.8871277086 19.2803571429 52.7592000000
754 1 60.9941152086 21.1978571429 51.8097000000
755 2 63.2083009229 21.1978571429 52.7592000000
756 1 64.3153937800 19.2803571429 51.8097000000
757 2 59.8871277086 19.2803571429 48.6232000000
758 1 60.9941152086 21.1978571429 49.5727000000
759 2 63.2083009229 21.1978571429 48.6232000000
760 1 64.3153937800 19.2803571429 49.5727000000
761 2 66.5295056179 15.4453571429 52.7592000000
762 1 67.6365984750 17.3628571429 51.8097000000
763 2 69.8506788321 17.3628571429 52.7592000000
764 1 70.9577716893 15.4453571429 51.8097000000
765 2 66.5295056179 15.4453571429 48.6232000000
766 1 67.6365984750 17.3628571429 49.5727000000
767 2 69.8506788321 17.3628571429 48.6232000000
768 1 70.9577716893 15.4453571429 49.5727000000
769 2 66.5295056179 19.2803571429 52.7592000000
770 1 67.6365984750 21.1978571429 51.8097000000
771 2 69.8506788321 21.1978571429 52.7592000000
772 1 70.9577716893 19.2803571429 51.8097000000
773 2 66.5295056179 19.2803571429 48.6232000000
774 2 69.8506788321 21.1978571429 48.6232000000
775 1 70.9577716893 19.2803571429 49.5727000000
776 2 73.1719574036 15.4453571429 52.7592000000
777 1 74.2789449036 17.3628571429 51.8097000000
778 2 76.4931306179 17.3628571429 52.7592000000
779 1 77.6002234750 15.4453571429 51.8097000000
780 2 73.1719574036 15.4453571429 48.6232000000
781 1 74.2789449036 17.3628571429 49.5727000000
782 2 76.4931306179 17.3628571429 48.6232000000
783 1 77.6002234750 15.4453571429 49.5727000000
784 2 73.1719574036 19.2803571429 52.7592000000
785 1 74.2789449036 21.1978571429 51.8097000000
786 2 76.4931306179 21.1978571429 52.7592000000
787 1 77.6002234750 19.2803571429 51.8097000000
788 2 73.1719574036 19.2803571429 48.6232000000
789 2 76.4931306179 21.1978571429 48.6232000000
790 1 77.6002234750 19.2803571429 49.5727000000
791 2 79.8143353129 15.4453571429 52.7592000000
792 1 80.9214281700 17.3628571429 51.8097000000
793 2 83.1355085271 17.3628571429 52.7592000000
794 1 84.2426013843 15.4453571429 51.8097000000
795 2 79.8143353129 15.4453571429 48.6232000000
796 1 80.9214281700 17.3628571429 49.5727000000
797 2 83.1355085271 17.3628571429 48.6232000000
798 1 84.2426013843 15.4453571429 49.5727000000
799 2 79.8143353129 19.2803571429 52.7592000000
800 1 80.9214281700 21.1978571429 51.8097000000
801 2 83.1355085271 21.1978571429 52.7592000000
802 1 84.2426013843 19.2803571429 51.8097000000
803 2 79.8143353129 19.2803571429 48.6232000000
804 1 80.9214281700 21.1978571429 49.5727000000
805 2 83.1355085271 21.1978571429 48.6232000000
806 2 86.4567870986 15.4453571429 52.7592000000
807 1 87.5637745986 17.3628571429 51.8097000000
808 2 89.7779603129 17.3628571429 52.7592000000
809 1 90.8850531700 15.4453571429 51.8097000000
810 2 86.4567870986 15.4453571429 48.6232000000
811 1 87.5637745986 17.3628571429 49.5727000000
812 2 89.7779603129 17.3628571429 48.6232000000
813 1 90.8850531700 15.4453571429 49.5727000000
814 2 86.4567870986 19.2803571429 52.7592000000
815 1 87.5637745986 21.1978571429 51.8097000000
816 2 89.7779603129 21.1978571429 52.7592000000
817 1 90.8850531700 19.2803571429 51.8097000000
818 2 86.4567870986 19.2803571429 48.6232000000
819 1 87.5637745986 21.1978571429 49.5727000000
820 2 89.7779603129 21.1978571429 48.6232000000
821 1 90.8850531700 19.2803571429 49.5727000000
822 2 93.0991650079 15.4453571429 52.7592000000
823 1 94.2062578650 17.3628571429 51.8097000000
824 2 96.4203382221 17.3628571429 52.7592000000
825 1 97.5274310793 15.4453571429 51.8097000000
826 2 93.0991650079 15.4453571429 48.6232000000
827 1 94.2062578650 17.3628571429 49.5727000000
828 2 96.4203382221 17.3628571429 48.6232000000
829 2 93.0991650079 19.2803571429 52.7592000000
830 2 96.4203382221 21.1978571429 52.7592000000
831 1 97.5274310793 19.2803571429 51.8097000000
832 2 93.0991650079 19.2803571429 48.6232000000
833 1 94.2062578650 21.1978571429 49.5727000000
834 2 96.4203382221 21.1978571429 48.6232000000
835 1 97.5274310793 19.2803571429 49.5727000000
836 2 99.7416167936 15.4453571429 52.7592000000
837 1 100.8486042936 17.3628571429 51.8097000000
838 2 103.0627900079 17.3628571429 52.7592000000
839 1 104.1698828650 15.4453571429 51.8097000000
840 2 99.7416167936 15.4453571429 48.6232000000
841 1 100.8486042936 17.3628571429 49.5727000000
842 2 103.0627900079 17.3628571429 48.6232000000
843 1 104.1698828650 15.4453571429 49.5727000000
844 2 99.7416167936 19.2803571429 52.7592000000
845 1 100.8486042936 21.1978571429 51.8097000000
846 2 103.0627900079 21.1978571429 52.7592000000
847 1 104.1698828650 19.2803571429 51.8097000000
848 2 99.7416167936 19.2803571429 48.6232000000
849 1 100.8486042936 21.1978571429 49.5727000000
850 2 103.0627900079 21.1978571429 48.6232000000
851 2 106.3839947029 15.4453571429 52.7592000000
852 1 107.4910875600 17.3628571429 51.8097000000
853 2 109.7051679171 17.3628571429 52.7592000000
854 1 110.8122607743 15.4453571429 51.8097000000
855 2 106.3839947029 15.4453571429 48.6232000000
856 1 107.4910875600 17.3628571429 49.5727000000
857 2 109.7051679171 17.3628571429 48.6232000000
858 1 110.8122607743 15.4453571429 49.5727000000
859 2 106.3839947029 19.2803571429 52.7592000000
860 1 107.4910875600 21.1978571429 51.8097000000
861 2 109.7051679171 21.1978571429 52.7592000000
862 1 110.8122607743 19.2803571429 51.8097000000
863 2 106.3839947029 19.2803571429 48.6232000000
864 1 107.4910875600 21.1978571429 49.5727000000
865 2 109.7051679171 21.1978571429 48.6232000000
866 2 113.0264464886 15.4453571429 52.7592000000
867 1 114.1334339886 17.3628571429 51.8097000000
868 2 116.3476197029 17.3628571429 52.7592000000
869 1 117.4547125600 15.4453571429 51.8097000000
870 2 113.0264464886 15.4453571429 48.6232000000
871 1 114.1334339886 17.3628571429 49.5727000000
872 2 116.3476197029 17.3628571429 48.6232000000
873 1 117.4547125600 15.4453571429 49.5727000000
874 2 113.0264464886 19.2803571429 52.7592000000
875 1 114.1334339886 21.1978571429 51.8097000000
876 2 116.3476197029 21.1978571429 52.7592000000
877 1 117.4547125600 19.2803571429 51.8097000000
878 2 113.0264464886 19.2803571429 48.6232000000
879 1 114.1334339886 21.1978571429 49.5727000000
880 2 116.3476197029 21.1978571429 48.6232000000
881 1 117.4547125600 19.2803571429 49.5727000000
882 2 119.6688243979 15.4453571429 52.7592000000
883 1 120.7759172550 17.3628571429 51.8097000000
884 2 122.9899976121 17.3628571429 52.7592000000
885 1 124.0970904693 15.4453571429 51.8097000000
886 2 119.6688243979 15.4453571429 48.6232000000
887 1 120.7759172550 17.3628571429 49.5727000000
888 2 122.9899976121 17.3628571429 48.6232000000
889 1 124.0970904693 15.4453571429 49.5727000000
890 2 119.6688243979 19.2803571429 52.7592000000
891 1 120.7759172550 21.1978571429 51.8097000000
892 2 122.9899976121 21.1978571429 52.7592000000
893 2 119.6688243979 19.2803571429 48.6232000000
894 1 120.7759172550 21.1978571429 49.5727000000
895 2 122.9899976121 21.1978571429 48.6232000000
896 1 124.0970904693 19.2803571429 49.5727000000
897 2 126.3112761836 15.4453571429 52.7592000000
898 1 127.4182636836 17.3628571429 51.8097000000
899 2 129.6324493979 17.3628571429 52.7592000000
900 2 126.3112761836 15.4453571429 48.6232000000
901 1 127.4182636836 17.3628571429 49.5727000000
902 2 129.6324493979 17.3628571429 48.6232000000
903 1 130.7395422550 15.4453571429 49.5727000000
904 2 126.3112761836 19.2803571429 52.7592000000
905 1 127.4182636836 21.1978571429 51.8097000000
906 2 129.6324493979 21.1978571429 52.7592000000
907 1 130.7395422550 19.2803571429 51.8097000000
908 2 126.3112761836 19.2803571429 48.6232000000
909 1 127.4182636836 21.1978571429 49.5727000000
910 2 129.6324493979 21.1978571429 48.6232000000
911 1 130.7395422550 19.2803571429 49.5727000000
912 2 0.1053571429 23.1153571429 52.7592000000
913 1 1.2124500000 25.0328571429 51.8097000000
914 2 3.4265303571 25.0328571429 52.7592000000
915 1 4.5336232143 23.1153571429 51.8097000000
916 2 0.1053571429 23.1153571429 48.6232000000
917 1 1.2124500000 25.0328571429 49.5727000000
918 2 3.4265303571 25.0328571429 48.6232000000
919 1 4.5336232143 23.1153571429 49.5727000000
920 2 0.1053571429 26.9503571429 52.7592000000
921 1 1.2124500000 28.8678571429 51.8097000000
922 2 3.4265303571 28.8678571429 52.7592000000
923 2 0.1053571429 26.9503571429 48.6232000000
924 1 1.2124500000 28.8678571429 49.5727000000
925 2 3.4265303571 28.8678571429 48.6232000000
926 1 4.5336232143 26.9503571429 49.5727000000
927 2 6.7478089286 23.1153571429 52.7592000000
928 1 7.8547964286 25.0328571429 51.8097000000
929 2 10.0689821429 25.0328571429 52.7592000000
930 1 11.1760750000 23.1153571429 51.8097000000
931 2 6.7478089286 23.1153571429 48.6232000000
932 1 7.8547964286 25.0328571429 49.5727000000
933 2 10.0689821429 25.0328571429 48.6232000000
934 1 11.1760750000 23.1153571429 49.5727000000
935 2 6.7478089286 26.9503571429 52.7592000000
936 1 7.8547964286 28.8678571429 51.8097000000
937 2 10.0689821429 28.8678571429 52.7592000000
938 1 11.1760750000 26.9503571429 51.8097000000
939 2 6.7478089286 26.9503571429 48.6232000000
940 1 7.8547964286 28.8678571429 49.5727000000
941 2 10.0689821429 28.8678571429 48.6232000000
942 2 13.3901868379 23.1153571429 52.7592000000
943 1 14.4972796950 25.0328571429 51.8097000000
944 2 16.7113600521 25.0328571429 52.7592000000
945 1 17.8184529093 23.1153571429 51.8097000000
946 2 13.3901868379 23.1153571429 48.6232000000
947 1 14.4972796950 25.0328571429 49.5727000000
948 2 16.7113600521 25.0328571429 48.6232000000
949 1 17.8184529093 23.1153571429 49.5727000000
950 2 13.3901868379 26.9503571429 52.7592000000
951 1 14.4972796950 28.8678571429 51.8097000000
952 2 16.7113600521 28.8678571429 52.7592000000
953 1 17.8184529093 26.9503571429 51.8097000000
954 2 13.3901868379 26.9503571429 48.6232000000
955 1 14.4972796950 28.8678571429 49.5727000000
956 2 16.7113600521 28.8678571429 48.6232000000
957 2 20.0326386236 23.1153571429 52.7592000000
958 1 21.1396261236 25.0328571429 51.8097000000
959 2 23.3538118379 25.0328571429 52.7592000000
960 1 24.4609046950 23.1153571429 51.8097000000
961 2 20.0326386236 23.1153571429 48.6232000000
962 1 21.1396261236 25.0328571429 49.5727000000
963 2 23.3538118379 25.0328571429 48.6232000000
964 1 24.4609046950 23.1153571429 49.5727000000
965 2 20.0326386236 26.9503571429 52.7592000000
966 1 21.1396261236 28.8678571429 51.8097000000
967 2 23.3538118379 28.8678571429 52.7592000000
968 2 20.0326386236 26.9503571429 48.6232000000
969 1 21.1396261236 28.8678571429 49.5727000000
970 2 23.3538118379 28.8678571429 48.6232000000
971 1 24.4609046950 26.9503571429 49.5727000000
972 2 26.6750165329 23.1153571429 52.7592000000
973 1 27.7821093900 25.0328571429 51.8097000000
974 2 29.9961897471 25.0328571429 52.7592000000
975 1 31.1032826043 23.1153571429 51.8097000000
976 2 26.6750165329 23.1153571429 48.6232000000
977 1 27.7821093900 25.0328571429 49.5727000000
978 2 29.9961897471 25.0328571429 48.6232000000
979 1 31.1032826043 23.1153571429 49.5727000000
980 2 26.6750165329 26.9503571429 52.7592000000
981 1 27.7821093900 28.8678571429 51.8097000000
982 2 29.9961897471 28.8678571429 52.7592000000
983 1 31.1032826043 26.9503571429 51.8097000000
984 2 26.6750165329 26.9503571429 48.6232000000
985 1 27.7821093900 28.8678571429 49.5727000000
986 2 29.9961897471 28.8678571429 48.6232000000
987 1 31.1032826043 26.9503571429 49.5727000000
988 2 33.3174683186 23.1153571429 52.7592000000
989 1 34.4244558186 25.0328571429 51.8097000000
990 2 36.6386415329 25.0328571429 52.7592000000
991 1 37.7457343900 23.1153571429 51.8097000000
992 2 33.3174683186 23.1153571429 48.6232000000
993 2 36.6386415329 25.0328571429 48.6232000000
994 1 37.7457343900 23.1153571429 49.5727000000
995 2 33.3174683186 26.9503571429 52.7592000000
996 1 34.4244558186 28.8678571429 51.8097000000
997 2 36.6386415329 28.8678571429 52.7592000000
998 1 37.7457343900 26.9503571429 51.8097000000
999 2 33.3174683186 26.9503571429 48.6232000000
1000 1 34.4244558186 28.8678571429 49.5727000000
1001 2 36.6386415329 28.8678571429 48.6232000000
1002 1 37.7457343900 26.9503571429 49.5727000000
1003 2 39.9598462279 23.1153571429 52.7592000000
1004 2 43.2810194421 25.0328571429 52.7592000000
1005 1 44.3881122993 23.1153571429 51.8097000000
1006 2 39.9598462279 23.1153571429 48.6232000000
1007 1 41.0669390850 25.0328571429 49.5727000000
1008 2 43.2810194421 25.0328571429 48.6232000000
1009 1 44.3881122993 23.1153571429 49.5727000000
1010 2 39.9598462279 26.9503571429 52.7592000000
1011 1 41.0669390850 28.8678571429 51.8097000000
1012 2 43.2810194421 28.8678571429 52.7592000000
1013 1 44.3881122993 26.9503571429 51.8097000000
1014 2 39.9598462279 26.9503571429 48.6232000000
1015 1 41.0669390850 28.8678571429 49.5727000000
1016 2 43.2810194421 28.8678571429 48.6232000000
1017 1 44.3881122993 26.9503571429 49.5727000000
1018 2 46.6022980136 23.1153571429 52.7592000000
1019 1 47.7092855136 25.0328571429 51.8097000000
1020 2 49.9234712279 25.0328571429 52.7592000000
1021 1 51.0305640850 23.1153571429 51.8097000000
1022 2 46.6022980136 23.1153571429 48.6232000000
1023 1 47.7092855136 25.0328571429 49.5727000000
1024 2 49.9234712279 25.0328571429 48.6232000000
1025 1 51.0305640850 23.1153571429 49.5727000000
1026 2 46.6022980136 26.9503571429 52.7592000000
1027 1 47.7092855136 28.8678571429 51.8097000000
1028 2 49.9234712279 28.8678571429 52.7592000000
1029 1 51.0305640850 26.9503571429 51.8097000000
1030 2 46.6022980136 26.9503571429 48.6232000000
1031 1 47.7092855136 28.8678571429 49.5727000000
1032 2 49.9234712279 28.8678571429 48.6232000000
1033 1 51.0305640850 26.9503571429 49.5727000000
1034 2 53.2446759229 23.1153571429 52.7592000000
1035 2 56.5658491371 25.0328571429 52.7592000000
1036 1 57.6729419943 23.1153571429 51.8097000000
1037 2 53.2446759229 23.1153571429 48.6232000000
1038 1 54.3517687800 25.0328571429 49.5727000000
1039 2 56.5658491371 25.0328571429 48.6232000000
1040 1 57.6729419943 23.1153571429 49.5727000000
1041 2 53.2446759229 26.9503571429 52.7592000000
1042 1 54.3517687800 28.8678571429 51.8097000000
1043 2 56.5658491371 28.8678571429 52.7592000000
1044 1 57.6729419943 26.9503571429 51.8097000000
1045 2 53.2446759229 26.9503571429 48.6232000000
1046 1 54.3517687800 28.8678571429 49.5727000000
1047 2 56.5658491371 28.8678571429 48.6232000000
1048 1 57.6729419943 26.9503571429 49.5727000000
1049 2 59.8871277086 23.1153571429 52.7592000000
1050 2 63.2083009229 25.0328571429 52.7592000000
1051 1 64.3153937800 23.1153571429 51.8097000000
1052 2 59.8871277086 23.1153571429 48.6232000000
1053 1 60.9941152086 25.0328571429 49.5727000000
1054 2 63.2083009229 25.0328571429 48.6232000000
1055 1 64.3153937800 23.1153571429 49.5727000000
1056 2 59.8871277086 26.9503571429 52.7592000000
1057 1 60.9941152086 28.8678571429 51.8097000000
1058 2 63.2083009229 28.8678571429 52.7592000000
1059 1 64.3153937800 26.9503571429 51.8097000000
1060 2 59.8871277086 26.9503571429 48.6232000000
1061 1 60.9941152086 28.8678571429 49.5727000000
1062 2 63.2083009229 28.8678571429 48.6232000000
1063 1 64.3153937800 26.9503571429 49.5727000000
1064 2 66.5295056179 23.1153571429 52.7592000000
1065 1 67.6365984750 25.0328571429 51.8097000000
1066 2 69.8506788321 25.0328571429 52.7592000000
1067 1 70.9577716893 23.1153571429 51.8097000000
1068 2 66.5295056179 23.1153571429 48.6232000000
1069 1 67.6365984750 25.0328571429 49.5727000000
1070 2 69.8506788321 25.0328571429 48.6232000000
1071 1 70.9577716893 23.1153571429 49.5727000000
1072 2 66.5295056179 26.9503571429 52.7592000000
1073 1 67.6365984750 28.8678571429 51.8097000000
1074 2 69.8506788321 28.8678571429 52.7592000000
1075 1 70.9577716893 26.9503571429 51.8097000000
1076 2 66.5295056179 26.9503571429 48.6232000000
1077 1 67.6365984750 28.8678571429 49.5727000000
1078 2 69.8506788321 28.8678571429 48.6232000000
1079 1 70.9577716893 26.9503571429 49.5727000000
1080 2 73.1719574036 23.1153571429 52.7592000000
1081 1 74.2789449036 25.0328571429 51.8097000000
1082 2 76.4931306179 25.0328571429 52.7592000000
1083 1 77.6002234750 23.1153571429 51.8097000000
1084 2 73.1719574036 23.1153571429 48.6232000000
1085 1 74.2789449036 25.0328571429 49.5727000000
1086 2 76.4931306179 25.0328571429 48.6232000000
1087 1 77.6002234750 23.1153571429 49.5727000000
1088 2 73.1719574036 26.9503571429 52.7592000000
1089 2 76.4931306179 28.8678571429 52.7592000000
1090 1 77.6002234750 26.9503571429 51.8097000000
1091 2 73.1719574036 26.9503571429 48.6232000000
1092 1 74.2789449036 28.8678571429 49.5727000000
1093 2 76.4931306179 28.8678571429 48.6232000000
1094 1 77.6002234750 26.9503571429 49.5727000000
1095 2 79.8143353129 23.1153571429 52.7592000000
1096 1 80.9214281700 25.0328571429 51.8097000000
1097 2 83.1355085271 25.0328571429 52.7592000000
1098 1 84.2426013843 23.1153571429 51.8097000000
1099 2 79.8143353129 23.1153571429 48.6232000000
1100 1 80.9214281700 25.0328571429 49.5727000000
1101 2 83.1355085271 25.0328571429 48.6232000000
1102 1 84.2426013843 23.1153571429 49.5727000000
1103 2 79.8143353129 26.9503571429 52.7592000000
1104 1 80.9214281700 28.8678571429 51.8097000000
1105 2 83.1355085271 28.8678571429 52.7592000000
1106 1 84.2426013843 26.9503571429 51.8097000000
1107 2 79.8143353129 26.9503571429 48.6232000000
1108 1 80.9214281700 28.8678571429 49.5727000000
1109 2 83.1355085271 28.8678571429 48.6232000000
1110 2 86.4567870986 23.1153571429 52.7592000000
1111 1 87.5637745986 25.0328571429 51.8097000000
1112 2 89.7779603129 25.0328571429 52.7592000000
1113 1 90.8850531700 23.1153571429 51.8097000000
1114 2 86.4567870986 23.1153571429 48.6232000000
1115 1 87.5637745986 25.0328571429 49.5727000000
1116 2 89.7779603129 25.0328571429 48.6232000000
1117 1 90.8850531700 23.1153571429 49.5727000000
1118 2 86.4567870986 26.9503571429 52.7592000000
1119 1 87.5637745986 28.8678571429 51.8097000000
1120 2 89.7779603129 28.8678571429 52.7592000000
1121 1 90.8850531700 26.9503571429 51.8097000000
1122 2 86.4567870986 26.9503571429 48.6232000000
1123 1 87.5637745986 28.8678571429 49.5727000000
1124 2 89.7779603129 28.8678571429 48.6232000000
1125 2 93.0991650079 23.1153571429 52.7592000000
1126 1 94.2062578650 25.0328571429 51.8097000000
1127 2 96.4203382221 25.0328571429 52.7592000000
1128 1 97.5274310793 23.1153571429 51.8097000000
1129 2 93.0991650079 23.1153571429 48.6232000000
1130 1 94.2062578650 25.0328571429 49.5727000000
1131 2 96.4203382221 25.0328571429 48.6232000000
1132 1 97.5274310793 23.1153571429 49.5727000000
1133 2 93.0991650079 26.9503571429 52.7592000000
1134 1 94.2062578650 28.8678571429 51.8097000000
1135 2 96.4203382221 28.8678571429 52.7592000000
1136 1 97.5274310793 26.9503571429 51.8097000000
1137 2 93.0991650079 26.9503571429 48.6232000000
1138 1 94.2062578650 28.8678571429 49.5727000000
1139 2 96.4203382221 28.8678571429 48.6232000000
1140 1 97.5274310793 26.9503571429 49.5727000000
1141 2 99.7416167936 23.1153571429 52.7592000000
1142 1 100.8486042936 25.0328571429 51.8097000000
1143 2 103.0627900079 25.0328571429 52.7592000000
1144 1 104.1698828650 23.1153571429 51.8097000000
1145 2 99.7416167936 23.1153571429 48.6232000000
1146 1 100.8486042936 25.0328571429 49.5727000000
1147 2 103.0627900079 25.0328571429 48.6232000000
1148 1 104.1698828650 23.1153571429 49.5727000000
1149 2 99.7416167936 26.9503571429 52.7592000000
1150 1 100.8486042936 28.8678571429 51.8097000000
1151 2 103.0627900079 28.8678571429 52.7592000000
1152 1 104.1698828650 26.9503571429 51.8097000000
1153 2 99.7416167936 26.9503571429 48.6232000000
1154 2 103.0627900079 28.8678571429 48.6232000000
1155 1 104.1698828650 26.9503571429 49.5727000000
1156 2 106.3839947029 23.1153571429 52.7592000000
1157 1 107.4910875600 25.0328571429 51.8097000000
1158 2 109.7051679171 25.0328571429 52.7592000000
1159 1 110.8122607743 23.1153571429 51.8097000000
1160 2 106.3839947029 23.1153571429 48.6232000000
1161 2 109.7051679171 25.0328571429 48.6232000000
1162 1 110.8122607743 23.1153571429 49.5727000000
1163 2 106.3839947029 26.9503571429 52.7592000000
1164 1 107.4910875600 28.8678571429 51.8097000000
1165 2 109.7051679171 28.8678571429 52.7592000000
1166 1 110.8122607743 26.9503571429 51.8097000000
1167 2 106.3839947029 26.9503571429 48.6232000000
1168 1 107.4910875600 28.8678571429 49.5727000000
1169 2 109.7051679171 28.8678571429 48.6232000000
1170 1 110.8122607743 26.9503571429 49.5727000000
1171 2 113.0264464886 23.1153571429 52.7592000000
1172 1 114.1334339886 25.0328571429 51.8097000000
1173 2 116.3476197029 25.0328571429 52.7592000000
1174 2 113.0264464886 23.1153571429 48.6232000000
1175 1 114.1334339886 25.0328571429 49.5727000000
1176 2 116.3476197029 25.0328571429 48.6232000000
1177 1 117.4547125600 23.1153571429 49.5727000000
1178 2 113.0264464886 26.9503571429 52.7592000000
1179 1 114.1334339886 28.8678571429 51.8097000000
1180 2 116.3476197029 28.8678571429 52.7592000000
1181 1 117.4547125600 26.9503571429 51.8097000000
1182 2 113.0264464886 26.9503571429 48.6232000000
1183 1 114.1334339886 28.8678571429 49.5727000000
1184 2 116.3476197029 28.8678571429 48.6232000000
1185 1 117.4547125600 26.9503571429 49.5727000000
1186 2 119.6688243979 23.1153571429 52.7592000000
1187 1 120.7759172550 25.0328571429 51.8097000000
1188 2 122.9899976121 25.0328571429 52.7592000000
1189 1 124.0970904693 23.1153571429 51.8097000000
1190 2 119.6688243979 23.1153571429 48.6232000000
1191 1 120.7759172550 25.0328571429 49.5727000000
1192 2 122.9899976121 25.0328571429 48.6232000000
1193 1 124.0970904693 23.1153571429 49.5727000000
1194 2 119.6688243979 26.9503571429 52.7592000000
1195 1 120.7759172550 28.8678571429 51.8097000000
1196 2 122.9899976121 28.8678571429 52.7592000000
1197 1 124.0970904693 26.9503571429 51.8097000000
1198 2 119.6688243979 26.9503571429 48.6232000000
1199 1 120.7759172550 28.8678571429 49.5727000000
1200 2 122.9899976121 28.8678571429 48.6232000000
1201 1 124.0970904693 26.9503571429 49.5727000000
1202 2 126.3112761836 23.1153571429 52.7592000000
1203 1 127.4182636836 25.0328571429 51.8097000000
1204 2 129.6324493979 25.0328571429 52.7592000000
1205 1 130.7395422550 23.1153571429 51.8097000000
1206 2 126.3112761836 23.1153571429 48.6232000000
1207 1 127.4182636836 25.0328571429 49.5727000000
1208 2 129.6324493979 25.0328571429 48.6232000000
1209 1 130.7395422550 23.1153571429 49.5727000000
1210 2 126.3112761836 26.9503571429 52.7592000000
1211 1 127.4182636836 28.8678571429 51.8097000000
1212 2 129.6324493979 28.8678571429 52.7592000000
1213 2 126.3112761836 26.9503571429 48.6232000000
1214 1 127.4182636836 28.8678571429 49.5727000000
1215 2 129.6324493979 28.8678571429 48.6232000000
1216 1 130.7395422550 26.9503571429 49.5727000000
1217 2 0.1053571429 30.7853571429 52.7592000000
1218 1 1.2124500000 32.7028571429 51.8097000000
1219 2 3.4265303571 32.7028571429 52.7592000000
1220 1 4.5336232143 30.7853571429 51.8097000000
1221 2 0.1053571429 30.7853571429 48.6232000000
1222 2 3.4265303571 32.7028571429 48.6232000000
1223 1 4.5336232143 30.7853571429 49.5727000000
1224 2 0.1053571429 34.6203571429 52.7592000000
1225 1 1.2124500000 36.5378571429 51.8097000000
1226 2 3.4265303571 36.5378571429 52.7592000000
1227 1 4.5336232143 34.6203571429 51.8097000000
1228 2 0.1053571429 34.6203571429 48.6232000000
1229 1 1.2124500000 36.5378571429 49.5727000000
1230 2 3.4265303571 36.5378571429 48.6232000000
1231 1 4.5336232143 34.6203571429 49.5727000000
1232 2 6.7478089286 30.7853571429 52.7592000000
1233 1 7.8547964286 32.7028571429 51.8097000000
1234 2 10.0689821429 32.7028571429 52.7592000000
1235 1 11.1760750000 30.7853571429 51.8097000000
1236 2 6.7478089286 30.7853571429 48.6232000000
1237 2 10.0689821429 32.7028571429 48.6232000000
1238 1 11.1760750000 30.7853571429 49.5727000000
1239 2 6.7478089286 34.6203571429 52.7592000000
1240 1 7.8547964286 36.5378571429 51.8097000000
1241 2 10.0689821429 36.5378571429 52.7592000000
1242 1 11.1760750000 34.6203571429 51.8097000000
1243 2 6.7478089286 34.6203571429 48.6232000000
1244 1 7.8547964286 36.5378571429 49.5727000000
1245 2 10.0689821429 36.5378571429 48.6232000000
1246 1 11.1760750000 34.6203571429 49.5727000000
1247 2 13.3901868379 30.7853571429 52.7592000000
1248 1 14.4972796950 32.7028571429 51.8097000000
1249 2 16.7113600521 32.7028571429 52.7592000000
1250 1 17.8184529093 30.7853571429 51.8097000000
1251 2 13.3901868379 30.7853571429 48.6232000000
1252 1 14.4972796950 32.7028571429 49.5727000000
1253 2 16.7113600521 32.7028571429 48.6232000000
1254 1 17.8184529093 30.7853571429 49.5727000000
1255 2 13.3901868379 34.6203571429 52.7592000000
1256 2 16.7113600521 36.5378571429 52.7592000000
1257 1 17.8184529093 34.6203571429 51.8097000000
1258 2 13.3901868379 34.6203571429 48.6232000000
1259 1 14.4972796950 36.5378571429 49.5727000000
1260 2 16.7113600521 36.5378571429 48.6232000000
1261 1 17.8184529093 34.6203571429 49.5727000000
1262 2 20.0326386236 30.7853571429 52.7592000000
1263 1 21.1396261236 32.7028571429 51.8097000000
1264 2 23.3538118379 32.7028571429 52.7592000000
1265 1 24.4609046950 30.7853571429 51.8097000000
1266 2 20.0326386236 30.7853571429 48.6232000000
1267 2 23.3538118379 32.7028571429 48.6232000000
1268 1 24.4609046950 30.7853571429 49.5727000000
1269 2 20.0326386236 34.6203571429 52.7592000000
1270 1 21.1396261236 36.5378571429 51.8097000000
1271 2 23.3538118379 36.5378571429 52.7592000000
1272 1 24.4609046950 34.6203571429 51.8097000000
1273 2 20.0326386236 34.6203571429 48.6232000000
1274 1 21.1396261236 36.5378571429 49.5727000000
1275 2 23.3538118379 36.5378571429 48.6232000000
1276 1 24.4609046950 34.6203571429 49.5727000000
1277 2 26.6750165329 30.7853571429 52.7592000000
1278 1 27.7821093900 32.7028571429 51.8097000000
1279 2 29.9961897471 32.7028571429 52.7592000000
1280 1 31.1032826043 30.7853571429 51.8097000000
1281 2 26.6750165329 30.7853571429 48.6232000000
1282 2 29.9961897471 32.7028571429 48.6232000000
1283 1 31.1032826043 30.7853571429 49.5727000000
1284 2 26.6750165329 34.6203571429 52.7592000000
1285 1 27.7821093900 36.5378571429 51.8097000000
1286 2 29.9961897471 36.5378571429 52.7592000000
1287 1 31.1032826043 34.6203571429 51.8097000000
1288 2 26.6750165329 34.6203571429 48.6232000000
1289 1 27.7821093900 36.5378571429 49.5727000000
1290 2 29.9961897471 36.5378571429 48.6232000000
1291 1 31.1032826043 34.6203571429 49.5727000000
1292 2 33.3174683186 30.7853571429 52.7592000000
1293 1 34.4244558186 32.7028571429 51.8097000000
1294 2 36.6386415329 32.7028571429 52.7592000000
1295 1 37.7457343900 30.7853571429 51.8097000000
1296 2 33.3174683186 30.7853571429 48.6232000000
1297 1 34.4244558186 32.7028571429 49.5727000000
1298 2 36.6386415329 32.7028571429 48.6232000000
1299 2 33.3174683186 34.6203571429 52.7592000000
1300 1 34.4244558186 36.5378571429 51.8097000000
1301 2 36.6386415329 36.5378571429 52.7592000000
1302 1 37.7457343900 34.6203571429 51.8097000000
1303 2 33.3174683186 34.6203571429 48.6232000000
1304 2 36.6386415329 36.5378571429 48.6232000000
1305 1 37.7457343900 34.6203571429 49.5727000000
1306 2 39.9598462279 30.7853571429 52.7592000000
1307 1 41.0669390850 32.7028571429 51.8097000000
1308 2 43.2810194421 32.7028571429 52.7592000000
1309 1 44.3881122993 30.7853571429 51.8097000000
1310 2 39.9598462279 30.7853571429 48.6232000000
1311 1 41.0669390850 32.7028571429 49.5727000000
1312 2 43.2810194421 32.7028571429 48.6232000000
1313 1 44.3881122993 30.7853571429 49.5727000000
1314 2 39.9598462279 34.6203571429 52.7592000000
1315 1 41.0669390850 36.5378571429 51.8097000000
1316 2 43.2810194421 36.5378571429 52.7592000000
1317 2 39.9598462279 34.6203571429 48.6232000000
1318 1 41.0669390850 36.5378571429 49.5727000000
1319 2 43.2810194421 36.5378571429 48.6232000000
1320 1 44.3881122993 34.6203571429 49.5727000000
1321 2 46.6022980136 30.7853571429 52.7592000000
1322 1 47.7092855136 32.7028571429 51.8097000000
1323 2 49.9234712279 32.7028571429 52.7592000000
1324 1 51.0305640850 30.7853571429 51.8097000000
1325 2 46.6022980136 30.7853571429 48.6232000000
1326 1 47.7092855136 32.7028571429 49.5727000000
1327 2 49.9234712279 32.7028571429 48.6232000000
1328 1 51.0305640850 30.7853571429 49.5727000000
1329 2 46.6022980136 34.6203571429 52.7592000000
1330 1 47.7092855136 36.5378571429 51.8097000000
1331 2 49.9234712279 36.5378571429 52.7592000000
1332 2 46.6022980136 34.6203571429 48.6232000000
1333 1 47.7092855136 36.5378571429 49.5727000000
1334 2 49.9234712279 36.5378571429 48.6232000000
1335 1 51.0305640850 34.6203571429 49.5727000000
1336 2 53.2446759229 30.7853571429 52.7592000000
1337 1 54.3517687800 32.7028571429 51.8097000000
1338 2 56.5658491371 32.7028571429 52.7592000000
1339 1 57.6729419943 30.7853571429 51.8097000000
1340 2 53.2446759229 30.7853571429 48.6232000000
1341 1 54.3517687800 32.7028571429 49.5727000000
1342 2 56.5658491371 32.7028571429 48.6232000000
1343 1 57.6729419943 30.7853571429 49.5727000000
1344 2 53.2446759229 34.6203571429 52.7592000000
1345 1 54.3517687800 36.5378571429 51.8097000000
1346 2 56.5658491371 36.5378571429 52.7592000000
1347 1 57.6729419943 34.6203571429 51.8097000000
1348 2 53.2446759229 34.6203571429 48.6232000000
1349 1 54.3517687800 36.5378571429 49.5727000000
1350 2 56.5658491371 36.5378571429 48.6232000000
1351 1 57.6729419943 34.6203571429 49.5727000000
1352 2 59.8871277086 30.7853571429 52.7592000000
1353 1 60.9941152086 32.7028571429 51.8097000000
1354 2 63.2083009229 32.7028571429 52.7592000000
1355 1 64.3153937800 30.7853571429 51.8097000000
1356 2 59.8871277086 30.7853571429 48.6232000000
1357 1 60.9941152086 32.7028571429 49.5727000000
1358 2 63.2083009229 32.7028571429 48.6232000000
1359 2 59.8871277086 34.6203571429 52.7592000000
1360 1 60.9941152086 36.5378571429 51.8097000000
1361 2 63.2083009229 36.5378571429 52.7592000000
1362 1 64.3153937800 34.6203571429 51.8097000000
1363 2 59.8871277086 34.6203571429 48.6232000000
1364 2 63.2083009229 36.5378571429 48.6232000000
1365 1 64.3153937800 34.6203571429 49.5727000000
1366 2 66.5295056179 30.7853571429 52.7592000000
1367 1 67.6365984750 32.7028571429 51.8097000000
1368 2 69.8506788321 32.7028571429 52.7592000000
1369 1 70.9577716893 30.7853571429 51.8097000000
1370 2 66.5295056179 30.7853571429 48.6232000000
1371 1 67.6365984750 32.7028571429 49.5727000000
1372 2 69.8506788321 32.7028571429 48.6232000000
1373 1 70.9577716893 30.7853571429 49.5727000000
1374 2 66.5295056179 34.6203571429 52.7592000000
1375 1 67.6365984750 36.5378571429 51.8097000000
1376 2 69.8506788321 36.5378571429 52.7592000000
1377 2 66.5295056179 34.6203571429 48.6232000000
1378 1 67.6365984750 36.5378571429 49.5727000000
1379 2 69.8506788321 36.5378571429 48.6232000000
1380 1 70.9577716893 34.6203571429 49.5727000000
1381 2 73.1719574036 30.7853571429 52.7592000000
1382 1 74.2789449036 32.7028571429 51.8097000000
1383 2 76.4931306179 32.7028571429 52.7592000000
1384 1 77.6002234750 30.7853571429 51.8097000000
1385 2 73.1719574036 30.7853571429 48.6232000000
1386 1 74.2789449036 32.7028571429 49.5727000000
1387 2 76.4931306179 32.7028571429 48.6232000000
1388 1 77.6002234750 30.7853571429 49.5727000000
1389 2 73.1719574036 34.6203571429 52.7592000000
1390 1 74.2789449036 36.5378571429 51.8097000000
1391 2 76.4931306179 36.5378571429 52.7592000000
1392 1 77.6002234750 34.6203571429 51.8097000000
1393 2 73.1719574036 34.6203571429 48.6232000000
1394 1 74.2789449036 36.5378571429 49.5727000000
1395 2 76.4931306179 36.5378571429 48.6232000000
1396 1 77.6002234750 34.6203571429 49.5727000000
1397 2 79.8143353129 30.7853571429 52.7592000000
1398 1 80.9214281700 32.7028571429 51.8097000000
1399 2 83.1355085271 32.7028571429 52.7592000000
1400 1 84.2426013843 30.7853571429 51.8097000000
1401 2 79.8143353129 30.7853571429 48.6232000000
1402 1 80.9214281700 32.7028571429 49.5727000000
1403 2 83.1355085271 32.7028571429 48.6232000000
1404 1 84.2426013843 30.7853571429 49.5727000000
1405 2 79.8143353129 34.6203571429 52.7592000000
1406 1 80.9214281700 36.5378571429 51.8097000000
1407 2 83.1355085271 36.5378571429 52.7592000000
1408 2 79.8143353129 34.6203571429 48.6232000000
1409 1 80.9214281700 36.5378571429 49.5727000000
1410 2 83.1355085271 36.5378571429 48.6232000000
1411 1 84.2426013843 34.6203571429 49.5727000000
1412 2 86.4567870986 30.7853571429 52.7592000000
1413 1 87.5637745986 32.7028571429 51.8097000000
1414 2 89.7779603129 32.7028571429 52.7592000000
1415 1 90.8850531700 30.7853571429 51.8097000000
1416 2 86.4567870986 30.7853571429 48.6232000000
1417 1 87.5637745986 32.7028571429 49.5727000000
1418 2 89.7779603129 32.7028571429 48.6232000000
1419 1 90.8850531700 30.7853571429 49.5727000000
1420 2 86.4567870986 34.6203571429 52.7592000000
1421 1 87.5637745986 36.5378571429 51.8097000000
1422 2 89.7779603129 36.5378571429 52.7592000000
1423 1 90.8850531700 34.6203571429 51.8097000000
1424 2 86.4567870986 34.6203571429 48.6232000000
1425 1 87.5637745986 36.5378571429 49.5727000000
1426 2 89.7779603129 36.5378571429 48.6232000000
1427 1 90.8850531700 34.6203571429 49.5727000000
1428 2 93.0991650079 30.7853571429 52.7592000000
1429 2 96.4203382221 32.7028571429 52.7592000000
1430 1 97.5274310793 30.7853571429 51.8097000000
1431 2 93.0991650079 30.7853571429 48.6232000000
1432 1 94.2062578650 32.7028571429 49.5727000000
1433 2 96.4203382221 32.7028571429 48.6232000000
1434 1 97.5274310793 30.7853571429 49.5727000000
1435 2 93.0991650079 34.6203571429 52.7592000000
1436 1 94.2062578650 36.5378571429 51.8097000000
1437 2 96.4203382221 36.5378571429 52.7592000000
1438 1 97.5274310793 34.6203571429 51.8097000000
1439 2 93.0991650079 34.6203571429 48.6232000000
1440 1 94.2062578650 36.5378571429 49.5727000000
1441 2 96.4203382221 36.5378571429 48.6232000000
1442 1 97.5274310793 34.6203571429 49.5727000000
1443 2 99.7416167936 30.7853571429 52.7592000000
1444 1 100.8486042936 32.7028571429 51.8097000000
1445 2 103.0627900079 32.7028571429 52.7592000000
1446 1 104.1698828650 30.7853571429 51.8097000000
1447 2 99.7416167936 30.7853571429 48.6232000000
1448 1 100.8486042936 32.7028571429 49.5727000000
1449 2 103.0627900079 32.7028571429 48.6232000000
1450 1 104.1698828650 30.7853571429 49.5727000000
1451 2 99.7416167936 34.6203571429 52.7592000000
1452 2 103.0627900079 36.5378571429 52.7592000000
1453 1 104.1698828650 34.6203571429 51.8097000000
1454 2 99.7416167936 34.6203571429 48.6232000000
1455 1 100.8486042936 36.5378571429 49.5727000000
1456 2 103.0627900079 36.5378571429 48.6232000000
1457 1 104.1698828650 34.6203571429 49.5727000000
1458 2 106.3839947029 30.7853571429 52.7592000000
1459 1 107.4910875600 32.7028571429 51.8097000000
1460 2 109.7051679171 32.7028571429 52.7592000000
1461 2 106.3839947029 30.7853571429 48.6232000000
1462 1 107.4910875600 32.7028571429 49.5727000000
1463 2 109.7051679171 32.7028571429 48.6232000000
1464 1 110.8122607743 30.7853571429 49.5727000000
1465 2 106.3839947029 34.6203571429 52.7592000000
1466 1 107.4910875600 36.5378571429 51.8097000000
1467 2 109.7051679171 36.5378571429 52.7592000000
1468 1 110.8122607743 34.6203571429 51.8097000000
1469 2 106.3839947029 34.6203571429 48.6232000000
1470 1 107.4910875600 36.5378571429 49.5727000000
1471 2 109.7051679171 36.5378571429 48.6232000000
1472 1 110.8122607743 34.6203571429 49.5727000000
1473 2 113.0264464886 30.7853571429 52.7592000000
1474 1 114.1334339886 32.7028571429 51.8097000000
1475 2 116.3476197029 32.7028571429 52.7592000000
1476 1 117.4547125600 30.7853571429 51.8097000000
1477 2 113.0264464886 30.7853571429 48.6232000000
1478 1 114.1334339886 32.7028571429 49.5727000000
1479 2 116.3476197029 32.7028571429 48.6232000000
1480 1 117.4547125600 30.7853571429 49.5727000000
1481 2 113.0264464886 34.6203571429 52.7592000000
1482 1 114.1334339886 36.5378571429 51.8097000000
1483 2 116.3476197029 36.5378571429 52.7592000000
1484 1 117.4547125600 34.6203571429 51.8097000000
1485 2 113.0264464886 34.6203571429 48.6232000000
1486 1 114.1334339886 36.5378571429 49.5727000000
1487 2 116.3476197029 36.5378571429 48.6232000000
1488 1 117.4547125600 34.6203571429 49.5727000000
1489 2 119.6688243979 30.7853571429 52.7592000000
1490 1 120.7759172550 32.7028571429 51.8097000000
1491 2 122.9899976121 32.7028571429 52.7592000000
1492 1 124.0970904693 30.7853571429 51.8097000000
1493 2 119.6688243979 30.7853571429 48.6232000000
1494 1 120.7759172550 32.7028571429 49.5727000000
1495 2 122.9899976121 32.7028571429 48.6232000000
1496 2 119.6688243979 34.6203571429 52.7592000000
1497 2 122.9899976121 36.5378571429 52.7592000000
1498 1 124.0970904693 34.6203571429 51.8097000000
1499 2 119.6688243979 34.6203571429 48.6232000000
1500 1 120.7759172550 36.5378571429 49.5727000000
1501 2 122.9899976121 36.5378571429 48.6232000000
1502 1 124.0970904693 34.6203571429 49.5727000000
1503 2 126.3112761836 30.7853571429 52.7592000000
1504 1 127.4182636836 32.7028571429 51.8097000000
1505 2 129.6324493979 32.7028571429 52.7592000000
1506 1 130.7395422550 30.7853571429 51.8097000000
1507 2 126.3112761836 30.7853571429 48.6232000000
1508 1 127.4182636836 32.7028571429 49.5727000000
1509 2 129.6324493979 32.7028571429 48.6232000000
1510 1 130.7395422550 30.7853571429 49.5727000000
1511 2 126.3112761836 34.6203571429 52.7592000000
1512 1 127.4182636836 36.5378571429 51.8097000000
1513 2 129.6324493979 36.5378571429 52.7592000000
1514 1 130.7395422550 34.6203571429 51.8097000000
1515 2 126.3112761836 34.6203571429 48.6232000000
1516 2 129.6324493979 36.5378571429 48.6232000000
1517 1 130.7395422550 34.6203571429 49.5727000000
1518 2 0.1053571429 38.4553571429 52.7592000000
1519 1 1.2124500000 40.3728571429 51.8097000000
1520 2 3.4265303571 40.3728571429 52.7592000000
1521 2 0.1053571429 38.4553571429 48.6232000000
1522 1 1.2124500000 40.3728571429 49.5727000000
1523 2 3.4265303571 40.3728571429 48.6232000000
1524 1 4.5336232143 38.4553571429 49.5727000000
1525 2 0.1053571429 42.2903571429 52.7592000000
1526 1 1.2124500000 44.2078571429 51.8097000000
1527 2 3.4265303571 44.2078571429 52.7592000000
1528 1 4.5336232143 42.2903571429 51.8097000000
1529 2 0.1053571429 42.2903571429 48.6232000000
1530 1 1.2124500000 44.2078571429 49.5727000000
1531 2 3.4265303571 44.2078571429 48.6232000000
1532 1 4.5336232143 42.2903571429 49.5727000000
1533 2 6.7478089286 38.4553571429 52.7592000000
1534 1 7.8547964286 40.3728571429 51.8097000000
1535 2 10.0689821429 40.3728571429 52.7592000000
1536 1 11.1760750000 38.4553571429 51.8097000000
1537 2 6.7478089286 38.4553571429 48.6232000000
1538 1 7.8547964286 40.3728571429 49.5727000000
1539 2 10.0689821429 40.3728571429 48.6232000000
1540 1 11.1760750000 38.4553571429 49.5727000000
1541 2 6.7478089286 42.2903571429 52.7592000000
1542 1 7.8547964286 44.2078571429 51.8097000000
1543 2 10.0689821429 44.2078571429 52.7592000000
1544 1 11.1760750000 42.2903571429 51.8097000000
1545 2 6.7478089286 42.2903571429 48.6232000000
1546 1 7.8547964286 44.2078571429 49.5727000000
1547 2 10.0689821429 44.2078571429 48.6232000000
1548 1 11.1760750000 42.2903571429 49.5727000000
1549 2 13.3901868379 38.4553571429 52.7592000000
1550 1 14.4972796950 40.3728571429 51.8097000000
1551 2 16.7113600521 40.3728571429 52.7592000000
1552 1 17.8184529093 38.4553571429 51.8097000000
1553 2 13.3901868379 38.4553571429 48.6232000000
1554 1 14.4972796950 40.3728571429 49.5727000000
1555 2 16.7113600521 40.3728571429 48.6232000000
1556 1 17.8184529093 38.4553571429 49.5727000000
1557 2 13.3901868379 42.2903571429 52.7592000000
1558 1 14.4972796950 44.2078571429 51.8097000000
1559 2 16.7113600521 44.2078571429 52.7592000000
1560 1 17.8184529093 42.2903571429 51.8097000000
1561 2 13.3901868379 42.2903571429 48.6232000000
1562 1 14.4972796950 44.2078571429 49.5727000000
1563 2 16.7113600521 44.2078571429 48.6232000000
1564 1 17.8184529093 42.2903571429 49.5727000000
1565 2 20.0326386236 38.4553571429 52.7592000000
1566 1 21.1396261236 40.3728571429 51.8097000000
1567 2 23.3538118379 40.3728571429 52.7592000000
1568 1 24.4609046950 38.4553571429 51.8097000000
1569 2 20.0326386236 38.4553571429 48.6232000000
1570 2 23.3538118379 40.3728571429 48.6232000000
1571 1 24.4609046950 38.4553571429 49.5727000000
1572 2 20.0326386236 42.2903571429 52.7592000000
1573 1 21.1396261236 44.2078571429 51.8097000000
1574 2 23.3538118379 44.2078571429 52.7592000000
1575 1 24.4609046950 42.2903571429 51.8097000000
1576 2 20.0326386236 42.2903571429 48.6232000000
1577 1 21.1396261236 44.2078571429 49.5727000000
1578 2 23.3538118379 44.2078571429 48.6232000000
1579 1 24.4609046950 42.2903571429 49.5727000000
1580 2 26.6750165329 38.4553571429 52.7592000000
1581 2 29.9961897471 40.3728571429 52.7592000000
1582 1 31.1032826043 38.4553571429 51.8097000000
1583 2 26.6750165329 38.4553571429 48.6232000000
1584 1 27.7821093900 40.3728571429 49.5727000000
1585 2 29.9961897471 40.3728571429 48.6232000000
1586 1 31.1032826043 38.4553571429 49.5727000000
1587 2 26.6750165329 42.2903571429 52.7592000000
1588 1 27.7821093900 44.2078571429 51.8097000000
1589 2 29.9961897471 44.2078571429 52.7592000000
1590 1 31.1032826043 42.2903571429 51.8097000000
1591 2 26.6750165329 42.2903571429 48.6232000000
1592 1 27.7821093900 44.2078571429 49.5727000000
1593 2 29.9961897471 44.2078571429 48.6232000000
1594 1 31.1032826043 42.2903571429 49.5727000000
1595 2 33.3174683186 38.4553571429 52.7592000000
1596 1 34.4244558186 40.3728571429 51.8097000000
1597 2 36.6386415329 40.3728571429 52.7592000000
1598 1 37.7457343900 38.4553571429 51.8097000000
1599 2 33.3174683186 38.4553571429 48.6232000000
1600 1 34.4244558186 40.3728571429 49.5727000000
1601 2 36.6386415329 40.3728571429 48.6232000000
1602 1 37.7457343900 38.4553571429 49.5727000000
1603 2 33.3174683186 42.2903571429 52.7592000000
1604 1 34.4244558186 44.2078571429 51.8097000000
1605 2 36.6386415329 44.2078571429 52.7592000000
1606 1 37.7457343900 42.2903571429 51.8097000000
1607 2 33.3174683186 42.2903571429 48.6232000000
1608 1 34.4244558186 44.2078571429 49.5727000000
1609 2 36.6386415329 44.2078571429 48.6232000000
1610 2 39.9598462279 38.4553571429 52.7592000000
1611 1 41.0669390850 40.3728571429 51.8097000000
1612 2 43.2810194421 40.3728571429 52.7592000000
1613 1 44.3881122993 38.4553571429 51.8097000000
1614 2 39.9598462279 38.4553571429 48.6232000000
1615 1 41.0669390850 40.3728571429 49.5727000000
1616 2 43.2810194421 40.3728571429 48.6232000000
1617 1 44.3881122993 38.4553571429 49.5727000000
1618 2 39.9598462279 42.2903571429 52.7592000000
1619 1 41.0669390850 44.2078571429 51.8097000000
1620 2 43.2810194421 44.2078571429 52.7592000000
1621 2 39.9598462279 42.2903571429 48.6232000000
1622 1 41.0669390850 44.2078571429 49.5727000000
1623 2 43.2810194421 44.2078571429 48.6232000000
1624 1 44.3881122993 42.2903571429 49.5727000000
1625 2 46.6022980136 38.4553571429 52.7592000000
1626 1 47.7092855136 40.3728571429 51.8097000000
1627 2 49.9234712279 40.3728571429 52.7592000000
1628 1 51.0305640850 38.4553571429 51.8097000000
1629 2 46.6022980136 38.4553571429 48.6232000000
1630 1 47.7092855136 40.3728571429 49.5727000000
1631 2 49.9234712279 40.3728571429 48.6232000000
1632 1 51.0305640850 38.4553571429 49.5727000000
1633 2 46.6022980136 42.2903571429 52.7592000000
1634 1 47.7092855136 44.2078571429 51.8097000000
1635 2 49.9234712279 44.2078571429 52.7592000000
1636 1 51.0305640850 42.2903571429 51.8097000000
1637 2 46.6022980136 42.2903571429 48.6232000000
1638 1 47.7092855136 44.2078571429 49.5727000000
1639 2 49.9234712279 44.2078571429 48.6232000000
1640 1 51.0305640850 42.2903571429 49.5727000000
1641 2 53.2446759229 38.4553571429 52.7592000000
1642 1 54.3517687800 40.3728571429 51.8097000000
1643 2 56.5658491371 40.3728571429 52.7592000000
1644 1 57.6729419943 38.4553571429 51.8097000000
1645 2 53.2446759229 38.4553571429 48.6232000000
1646 1 54.3517687800 40.3728571429 49.5727000000
1647 2 56.5658491371 40.3728571429 48.6232000000
1648 1 57.6729419943 38.4553571429 49.5727000000
1649 2 53.2446759229 42.2903571429 52.7592000000
1650 1 54.3517687800 44.2078571429 51.8097000000
1651 2 56.5658491371 44.2078571429 52.7592000000
1652 2 53.2446759229 42.2903571429 48.6232000000
1653 1 54.3517687800 44.2078571429 49.5727000000
1654 2 56.5658491371 44.2078571429 48.6232000000
1655 1 57.6729419943 42.2903571429 49.5727000000
1656 2 59.8871277086 38.4553571429 52.7592000000
1657 1 60.9941152086 40.3728571429 51.8097000000
1658 2 63.2083009229 40.3728571429 52.7592000000
1659 1 64.3153937800 38.4553571429 51.8097000000
1660 2 59.8871277086 38.4553571429 48.6232000000
1661 1 60.9941152086 40.3728571429 49.5727000000
1662 2 63.2083009229 40.3728571429 48.6232000000
1663 1 64.3153937800 38.4553571429 49.5727000000
1664 2 59.8871277086 42.2903571429 52.7592000000
1665 1 60.9941152086 44.2078571429 51.8097000000
1666 2 63.2083009229 44.2078571429 52.7592000000
1667 1 64.3153937800 42.2903571429 51.8097000000
1668 2 59.8871277086 42.2903571429 48.6232000000
1669 1 60.9941152086 44.2078571429 49.5727000000
1670 2 63.2083009229 44.2078571429 48.6232000000
1671 1 64.3153937800 42.2903571429 49.5727000000
1672 2 66.5295056179 38.4553571429 52.7592000000
1673 1 67.6365984750 40.3728571429 51.8097000000
1674 2 69.8506788321 40.3728571429 52.7592000000
1675 1 70.9577716893 38.4553571429 51.8097000000
1676 2 66.5295056179 38.4553571429 48.6232000000
1677 1 67.6365984750 40.3728571429 49.5727000000
1678 2 69.8506788321 40.3728571429 48.6232000000
1679 1 70.9577716893 38.4553571429 49.5727000000
1680 2 66.5295056179 42.2903571429 52.7592000000
1681 1 67.6365984750 44.2078571429 51.8097000000
1682 2 69.8506788321 44.2078571429 52.7592000000
1683 1 70.9577716893 42.2903571429 51.8097000000
1684 2 66.5295056179 42.2903571429 48.6232000000
1685 1 67.6365984750 44.2078571429 49.5727000000
1686 2 69.8506788321 44.2078571429 48.6232000000
1687 2 73.1719574036 38.4553571429 52.7592000000
1688 1 74.2789449036 40.3728571429 51.8097000000
1689 2 76.4931306179 40.3728571429 52.7592000000
1690 1 77.6002234750 38.4553571429 51.8097000000
1691 2 73.1719574036 38.4553571429 48.6232000000
1692 1 74.2789449036 40.3728571429 49.5727000000
1693 2 76.4931306179 40.3728571429 48.6232000000
1694 1 77.6002234750 38.4553571429 49.5727000000
1695 2 73.1719574036 42.2903571429 52.7592000000
1696 1 74.2789449036 44.2078571429 51.8097000000
1697 2 76.4931306179 44.2078571429 52.7592000000
1698 1 77.6002234750 42.2903571429 51.8097000000
1699 2 73.1719574036 42.2903571429 48.6232000000
1700 1 74.2789449036 44.2078571429 49.5727000000
1701 2 76.4931306179 44.2078571429 48.6232000000
1702 1 77.6002234750 42.2903571429 49.5727000000
1703 2 79.8143353129 38.4553571429 52.7592000000
1704 1 80.9214281700 40.3728571429 51.8097000000
1705 2 83.1355085271 40.3728571429 52.7592000000
1706 1 84.2426013843 38.4553571429 51.8097000000
1707 2 79.8143353129 38.4553571429 48.6232000000
1708 2 83.1355085271 40.3728571429 48.6232000000
1709 1 84.2426013843 38.4553571429 49.5727000000
1710 2 79.8143353129 42.2903571429 52.7592000000
1711 1 80.9214281700 44.2078571429 51.8097000000
1712 2 83.1355085271 44.2078571429 52.7592000000
1713 1 84.2426013843 42.2903571429 51.8097000000
1714 2 79.8143353129 42.2903571429 48.6232000000
1715 1 80.9214281700 44.2078571429 49.5727000000
1716 2 83.1355085271 44.2078571429 48.6232000000
1717 1 84.2426013843 42.2903571429 49.5727000000
1718 2 86.4567870986 38.4553571429 52.7592000000
1719 1 87.5637745986 40.3728571429 51.8097000000
1720 2 89.7779603129 40.3728571429 52.7592000000
1721 1 90.8850531700 38.4553571429 51.8097000000
1722 2 86.4567870986 38.4553571429 48.6232000000
1723 1 87.5637745986 40.3728571429 49.5727000000
1724 2 89.7779603129 40.3728571429 48.6232000000
1725 1 90.8850531700 38.4553571429 49.5727000000
1726 2 86.4567870986 42.2903571429 52.7592000000
1727 1 87.5637745986 44.2078571429 51.8097000000
1728 2 89.7779603129 44.2078571429 52.7592000000
1729 2 86.4567870986 42.2903571429 48.6232000000
1730 1 87.5637745986 44.2078571429 49.5727000000
1731 2 89.7779603129 44.2078571429 48.6232000000
1732 1 90.8850531700 42.2903571429 49.5727000000
1733 2 93.0991650079 38.4553571429 52.7592000000
1734 1 94.2062578650 40.3728571429 51.8097000000
1735 2 96.4203382221 40.3728571429 52.7592000000
1736 1 97.5274310793 38.4553571429 51.8097000000
1737 2 93.0991650079 38.4553571429 48.6232000000
1738 1 94.2062578650 40.3728571429 49.5727000000
1739 2 96.4203382221 40.3728571429 48.6232000000
1740 1 97.5274310793 38.4553571429 49.5727000000
1741 2 93.0991650079 42.2903571429 52.7592000000
1742 1 94.2062578650 44.2078571429 51.8097000000
1743 2 96.4203382221 44.2078571429 52.7592000000
1744 2 93.0991650079 42.2903571429 48.6232000000
1745 1 94.2062578650 44.2078571429 49.5727000000
1746 2 96.4203382221 44.2078571429 48.6232000000
1747 1 97.5274310793 42.2903571429 49.5727000000
1748 2 99.7416167936 38.4553571429 52.7592000000
1749 1 100.8486042936 40.3728571429 51.8097000000
1750 2 103.0627900079 40.3728571429 52.7592000000
1751 1 104.1698828650 38.4553571429 51.8097000000
1752 2 99.7416167936 38.4553571429 48.6232000000
1753 1 100.8486042936 40.3728571429 49.5727000000
1754 2 103.0627900079 40.3728571429 48.6232000000
1755 1 104.1698828650 38.4553571429 49.5727000000
1756 2 99.7416167936 42.2903571429 52.7592000000
1757 1 100.8486042936 44.2078571429 51.8097000000
1758 2 103.0627900079 44.2078571429 52.7592000000
1759 1 104.1698828650 42.2903571429 51.8097000000
1760 2 99.7416167936 42.2903571429 48.6232000000
1761 1 100.8486042936 44.2078571429 49.5727000000
1762 2 103.0627900079 44.2078571429 48.6232000000
1763 1 104.1698828650 42.2903571429 49.5727000000
1764 2 106.3839947029 38.4553571429 52.7592000000
1765 2 109.7051679171 40.3728571429 52.7592000000
1766 1 110.8122607743 38.4553571429 51.8097000000
1767 2 106.3839947029 38.4553571429 48.6232000000
1768 1 107.4910875600 40.3728571429 49.5727000000
1769 2 109.7051679171 40.3728571429 48.6232000000
1770 1 110.8122607743 38.4553571429 49.5727000000
1771 2 106.3839947029 42.2903571429 52.7592000000
1772 1 107.4910875600 44.2078571429 51.8097000000
1773 2 109.7051679171 44.2078571429 52.7592000000
1774 1 110.8122607743 42.2903571429 51.8097000000
1775 2 106.3839947029 42.2903571429 48.6232000000
1776 1 107.4910875600 44.2078571429 49.5727000000
1777 2 109.7051679171 44.2078571429 48.6232000000
1778 1 110.8122607743 42.2903571429 49.5727000000
1779 2 113.0264464886 38.4553571429 52.7592000000
1780 1 114.1334339886 40.3728571429 51.8097000000
1781 2 116.3476197029 40.3728571429 52.7592000000
1782 1 117.4547125600 38.4553571429 51.8097000000
1783 2 113.0264464886 38.4553571429 48.6232000000
1784 2 116.3476197029 40.3728571429 48.6232000000
1785 1 117.4547125600 38.4553571429 49.5727000000
1786 2 113.0264464886 42.2903571429 52.7592000000
1787 1 114.1334339886 44.2078571429 51.8097000000
1788 2 116.3476197029 44.2078571429 52.7592000000
1789 1 117.4547125600 42.2903571429 51.8097000000
1790 2 113.0264464886 42.2903571429 48.6232000000
1791 1 114.1334339886 44.2078571429 49.5727000000
1792 2 116.3476197029 44.2078571429 48.6232000000
1793 1 117.4547125600 42.2903571429 49.5727000000
1794 2 119.6688243979 38.4553571429 52.7592000000
1795 1 120.7759172550 40.3728571429 51.8097000000
1796 2 122.9899976121 40.3728571429 52.7592000000
1797 1 124.0970904693 38.4553571429 51.8097000000
1798 2 119.6688243979 38.4553571429 48.6232000000
1799 1 120.7759172550 40.3728571429 49.5727000000
1800 2 122.9899976121 40.3728571429 48.6232000000
1801 1 124.0970904693 38.4553571429 49.5727000000
1802 2 119.6688243979 42.2903571429 52.7592000000
1803 1 120.7759172550 44.2078571429 51.8097000000
1804 2 122.9899976121 44.2078571429 52.7592000000
1805 1 124.0970904693 42.2903571429 51.8097000000
1806 2 119.6688243979 42.2903571429 48.6232000000
1807 1 120.7759172550 44.2078571429 49.5727000000
1808 2 122.9899976121 44.2078571429 48.6232000000
1809 1 124.0970904693 42.2903571429 49.5727000000
1810 2 126.3112761836 38.4553571429 52.7592000000
1811 1 127.4182636836 40.3728571429 51.8097000000
1812 2 129.6324493979 40.3728571429 52.7592000000
1813 1 130.7395422550 38.4553571429 51.8097000000
1814 2 126.3112761836 38.4553571429 48.6232000000
1815 1 127.4182636836 40.3728571429 49.5727000000
1816 2 129.6324493979 40.3728571429 48.6232000000
1817 1 130.7395422550 38.4553571429 49.5727000000
1818 2 126.3112761836 42.2903571429 52.7592000000
1819 1 127.4182636836 44.2078571429 51.8097000000
1820 2 129.6324493979 44.2078571429 52.7592000000
1821 1 130.7395422550 42.2903571429 51.8097000000
1822 2 126.3112761836 42.2903571429 48.6232000000
1823 1 127.4182636836 44.2078571429 49.5727000000
1824 2 129.6324493979 44.2078571429 48.6232000000
1825 1 130.7395422550 42.2903571429 49.5727000000
1826 2 0.1053571429 46.1253571429 52.7592000000
1827 1 1.2124500000 48.0428571429 51.8097000000
1828 2 3.4265303571 48.0428571429 52.7592000000
1829 1 4.5336232143 46.1253571429 51.8097000000
1830 2 0.1053571429 46.1253571429 48.6232000000
1831 1 1.2124500000 48.0428571429 49.5727000000
1832 2 3.4265303571 48.0428571429 48.6232000000
1833 1 4.5336232143 46.1253571429 49.5727000000
1834 2 0.1053571429 49.9603571429 52.7592000000
1835 1 1.2124500000 51.8778571429 51.8097000000
1836 2 3.4265303571 51.8778571429 52.7592000000
1837 1 4.5336232143 49.9603571429 51.8097000000
1838 2 0.1053571429 49.9603571429 48.6232000000
1839 1 1.2124500000 51.8778571429 49.5727000000
1840 2 3.4265303571 51.8778571429 48.6232000000
1841 1 4.5336232143 49.9603571429 49.5727000000
1842 2 6.7478089286 46.1253571429 52.7592000000
1843 2 10.0689821429 48.0428571429 52.7592000000
1844 1 11.1760750000 46.1253571429 51.8097000000
1845 2 6.7478089286 46.1253571429 48.6232000000
1846 1 7.8547964286 48.0428571429 49.5727000000
1847 2 10.0689821429 48.0428571429 48.6232000000
1848 1 11.1760750000 46.1253571429 49.5727000000
1849 2 6.7478089286 49.9603571429 52.7592000000
1850 1 7.8547964286 51.8778571429 51.8097000000
1851 2 10.0689821429 51.8778571429 52.7592000000
1852 1 11.1760750000 49.9603571429 51.8097000000
1853 2 6.7478089286 49.9603571429 48.6232000000
1854 1 7.8547964286 51.8778571429 49.5727000000
1855 2 10.0689821429 51.8778571429 48.6232000000
1856 1 11.1760750000 49.9603571429 49.5727000000
1857 2 13.3901868379 46.1253571429 52.7592000000
1858 1 14.4972796950 48.0428571429 51.8097000000
1859 2 16.7113600521 48.0428571429 52.7592000000
1860 2 13.3901868379 46.1253571429 48.6232000000
1861 1 14.4972796950 48.0428571429 49.5727000000
1862 2 16.7113600521 48.0428571429 48.6232000000
1863 1 17.8184529093 46.1253571429 49.5727000000
1864 2 13.3901868379 49.9603571429 52.7592000000
1865 1 14.4972796950 51.8778571429 51.8097000000
1866 2 16.7113600521 51.8778571429 52.7592000000
1867 1 17.8184529093 49.9603571429 51.8097000000
1868 2 13.3901868379 49.9603571429 48.6232000000
1869 1 14.4972796950 51.8778571429 49.5727000000
1870 2 16.7113600521 51.8778571429 48.6232000000
1871 1 17.8184529093 49.9603571429 49.5727000000
1872 2 20.0326386236 46.1253571429 52.7592000000
1873 1 21.1396261236 48.0428571429 51.8097000000
1874 2 23.3538118379 48.0428571429 52.7592000000
1875 1 24.4609046950 46.1253571429 51.8097000000
1876 2 20.0326386236 46.1253571429 48.6232000000
1877 1 21.1396261236 48.0428571429 49.5727000000
1878 2 23.3538118379 48.0428571429 48.6232000000
1879 2 20.0326386236 49.9603571429 52.7592000000
1880 1 21.1396261236 51.8778571429 51.8097000000
1881 2 23.3538118379 51.8778571429 52.7592000000
1882 1 24.4609046950 49.9603571429 51.8097000000
1883 2 20.0326386236 49.9603571429 48.6232000000
1884 1 21.1396261236 51.8778571429 49.5727000000
1885 2 23.3538118379 51.8778571429 48.6232000000
1886 1 24.4609046950 49.9603571429 49.5727000000
1887 2 26.6750165329 46.1253571429 52.7592000000
1888 1 27.7821093900 48.0428571429 51.8097000000
1889 2 29.9961897471 48.0428571429 52.7592000000
1890 2 26.6750165329 46.1253571429 48.6232000000
1891 1 27.7821093900 48.0428571429 49.5727000000
1892 2 29.9961897471 48.0428571429 48.6232000000
1893 1 31.1032826043 46.1253571429 49.5727000000
1894 2 26.6750165329 49.9603571429 52.7592000000
1895 1 27.7821093900 51.8778571429 51.8097000000
1896 2 29.9961897471 51.8778571429 52.7592000000
1897 1 31.1032826043 49.9603571429 51.8097000000
1898 2 26.6750165329 49.9603571429 48.6232000000
1899 1 27.7821093900 51.8778571429 49.5727000000
1900 2 29.9961897471 51.8778571429 48.6232000000
1901 1 31.1032826043 49.9603571429 49.5727000000
1902 2 33.3174683186 46.1253571429 52.7592000000
1903 1 34.4244558186 48.0428571429 51.8097000000
1904 2 36.6386415329 48.0428571429 52.7592000000
1905 1 37.7457343900 46.1253571429 51.8097000000
1906 2 33.3174683186 46.1253571429 48.6232000000
1907 1 34.4244558186 48.0428571429 49.5727000000
1908 2 36.6386415329 48.0428571429 48.6232000000
1909 1 37.7457343900 46.1253571429 49.5727000000
1910 2 33.3174683186 49.9603571429 52.7592000000
1911 1 34.4244558186 51.8778571429 51.8097000000
1912 2 36.6386415329 51.8778571429 52.7592000000
1913 2 33.3174683186 49.9603571429 48.6232000000
1914 1 34.4244558186 51.8778571429 49.5727000000
1915 2 36.6386415329 51.8778571429 48.6232000000
1916 1 37.7457343900 49.9603571429 49.5727000000
1917 2 39.9598462279 46.1253571429 52.7592000000
1918 1 41.0669390850 48.0428571429 51.8097000000
1919 2 43.2810194421 48.0428571429 52.7592000000
1920 1 44.3881122993 46.1253571429 51.8097000000
1921 2 39.9598462279 46.1253571429 48.6232000000
1922 1 41.0669390850 48.0428571429 49.5727000000
1923 2 43.2810194421 48.0428571429 48.6232000000
1924 1 44.3881122993 46.1253571429 49.5727000000
1925 2 39.9598462279 49.9603571429 52.7592000000
1926 1 41.0669390850 51.8778571429 51.8097000000
1927 2 43.2810194421 51.8778571429 52.7592000000
1928 1 44.3881122993 49.9603571429 51.8097000000
1929 2 39.9598462279 49.9603571429 48.6232000000
1930 1 41.0669390850 51.8778571429 49.5727000000
1931 2 43.2810194421 51.8778571429 48.6232000000
1932 1 44.3881122993 49.9603571429 49.5727000000
1933 2 46.6022980136 46.1253571429 52.7592000000
1934 1 47.7092855136 48.0428571429 51.8097000000
1935 2 49.9234712279 48.0428571429 52.7592000000
1936 1 51.0305640850 46.1253571429 51.8097000000
1937 2 46.6022980136 46.1253571429 48.6232000000
1938 2 49.9234712279 48.0428571429 48.6232000000
1939 1 51.0305640850 46.1253571429 49.5727000000
1940 2 46.6022980136 49.9603571429 52.7592000000
1941 1 47.7092855136 51.8778571429 51.8097000000
1942 2 49.9234712279 51.8778571429 52.7592000000
1943 1 51.0305640850 49.9603571429 51.8097000000
1944 2 46.6022980136 49.9603571429 48.6232000000
1945 1 47.7092855136 51.8778571429 49.5727000000
1946 2 49.9234712279 51.8778571429 48.6232000000
1947 1 51.0305640850 49.9603571429 49.5727000000
1948 2 53.2446759229 46.1253571429 52.7592000000
1949 1 54.3517687800 48.0428571429 51.8097000000
1950 2 56.5658491371 48.0428571429 52.7592000000
1951 1 57.6729419943 46.1253571429 51.8097000000
1952 2 53.2446759229 46.1253571429 48.6232000000
1953 1 54.3517687800 48.0428571429 49.5727000000
1954 2 56.5658491371 48.0428571429 48.6232000000
1955 1 57.6729419943 46.1253571429 49.5727000000
1956 2 53.2446759229 49.9603571429 52.7592000000
1957 1 54.3517687800 51.8778571429 51.8097000000
1958 2 56.5658491371 51.8778571429 52.7592000000
1959 1 57.6729419943 49.9603571429 51.8097000000
1960 2 53.2446759229 49.9603571429 48.6232000000
1961 1 54.3517687800 51.8778571429 49.5727000000
1962 2 56.5658491371 51.8778571429 48.6232000000
1963 2 59.8871277086 46.1253571429 52.7592000000
1964 1 60.9941152086 48.0428571429 51.8097000000
1965 2 63.2083009229 48.0428571429 52.7592000000
1966 1 64.3153937800 46.1253571429 51.8097000000
1967 2 59.8871277086 46.1253571429 48.6232000000
1968 1 60.9941152086 48.0428571429 49.5727000000
1969 2 63.2083009229 48.0428571429 48.6232000000
1970 2 59.8871277086 49.9603571429 52.7592000000
1971 1 60.9941152086 51.8778571429 51.8097000000
1972 2 63.2083009229 51.8778571429 52.7592000000
1973 1 64.3153937800 49.9603571429 51.8097000000
1974 2 59.8871277086 49.9603571429 48.6232000000
1975 1 60.9941152086 51.8778571429 49.5727000000
1976 2 63.2083009229 51.8778571429 48.6232000000
1977 1 64.3153937800 49.9603571429 49.5727000000
1978 2 66.5295056179 46.1253571429 52.7592000000
1979 1 67.6365984750 48.0428571429 51.8097000000
1980 2 69.8506788321 48.0428571429 52.7592000000
1981 1 70.9577716893 46.1253571429 51.8097000000
1982 2 66.5295056179 46.1253571429 48.6232000000
1983 1 67.6365984750 48.0428571429 49.5727000000
1984 2 69.8506788321 48.0428571429 48.6232000000
1985 1 70.9577716893 46.1253571429 49.5727000000
1986 2 66.5295056179 49.9603571429 52.7592000000
1987 1 67.6365984750 51.8778571429 51.8097000000
1988 2 69.8506788321 51.8778571429 52.7592000000
1989 1 70.9577716893 49.9603571429 51.8097000000
1990 2 66.5295056179 49.9603571429 48.6232000000
1991 1 67.6365984750 51.8778571429 49.5727000000
1992 2 69.8506788321 51.8778571429 48.6232000000
1993 2 73.1719574036 46.1253571429 52.7592000000
1994 1 74.2789449036 48.0428571429 51.8097000000
1995 2 76.4931306179 48.0428571429 52.7592000000
1996 1 77.6002234750 46.1253571429 51.8097000000
1997 2 73.1719574036 46.1253571429 48.6232000000
1998 1 74.2789449036 48.0428571429 49.5727000000
1999 2 76.4931306179 48.0428571429 48.6232000000
2000 1 77.6002234750 46.1253571429 49.5727000000
2001 2 73.1719574036 49.9603571429 52.7592000000
2002 1 74.2789449036 51.8778571429 51.8097000000
2003 2 76.4931306179 51.8778571429 52.7592000000
2004 1 77.6002234750 49.9603571429 51.8097000000
2005 2 73.1719574036 49.9603571429 48.6232000000
2006 1 74.2789449036 51.8778571429 49.5727000000
2007 2 76.4931306179 51.8778571429 48.6232000000
2008 1 77.6002234750 49.9603571429 49.5727000000
2009 2 79.8143353129 46.1253571429 52.7592000000
2010 2 83.1355085271 48.0428571429 52.7592000000
2011 1 84.2426013843 46.1253571429 51.8097000000
2012 2 79.8143353129 46.1253571429 48.6232000000
2013 1 80.9214281700 48.0428571429 49.5727000000
2014 2 83.1355085271 48.0428571429 48.6232000000
2015 1 84.2426013843 46.1253571429 49.5727000000
2016 2 79.8143353129 49.9603571429 52.7592000000
2017 1 80.9214281700 51.8778571429 51.8097000000
2018 2 83.1355085271 51.8778571429 52.7592000000
2019 1 84.2426013843 49.9603571429 51.8097000000
2020 2 79.8143353129 49.9603571429 48.6232000000
2021 1 80.9214281700 51.8778571429 49.5727000000
2022 2 83.1355085271 51.8778571429 48.6232000000
2023 1 84.2426013843 49.9603571429 49.5727000000
2024 2 86.4567870986 46.1253571429 52.7592000000
2025 1 87.5637745986 48.0428571429 51.8097000000
2026 2 89.7779603129 48.0428571429 52.7592000000
2027 1 90.8850531700 46.1253571429 51.8097000000
2028 2 86.4567870986 46.1253571429 48.6232000000
2029 1 87.5637745986 48.0428571429 49.5727000000
2030 2 89.7779603129 48.0428571429 48.6232000000
2031 1 90.8850531700 46.1253571429 49.5727000000
2032 2 86.4567870986 49.9603571429 52.7592000000
2033 1 87.5637745986 51.8778571429 51.8097000000
2034 2 89.7779603129 51.8778571429 52.7592000000
2035 1 90.8850531700 49.9603571429 51.8097000000
2036 2 86.4567870986 49.9603571429 48.6232000000
2037 1 87.5637745986 51.8778571429 49.5727000000
2038 2 89.7779603129 51.8778571429 48.6232000000
2039 2 93.0991650079 46.1253571429 52.7592000000
2040 1 94.2062578650 48.0428571429 51.8097000000
2041 2 96.4203382221 48.0428571429 52.7592000000
2042 1 97.5274310793 46.1253571429 51.8097000000
2043 2 93.0991650079 46.1253571429 48.6232000000
2044 1 94.2062578650 48.0428571429 49.5727000000
2045 2 96.4203382221 48.0428571429 48.6232000000
2046 1 97.5274310793 46.1253571429 49.5727000000
2047 2 93.0991650079 49.9603571429 52.7592000000
2048 1 94.2062578650 51.8778571429 51.8097000000
2049 2 96.4203382221 51.8778571429 52.7592000000
2050 2 93.0991650079 49.9603571429 48.6232000000
2051 1 94.2062578650 51.8778571429 49.5727000000
2052 2 96.4203382221 51.8778571429 48.6232000000
2053 1 97.5274310793 49.9603571429 49.5727000000
2054 2 99.7416167936 46.1253571429 52.7592000000
2055 1 100.8486042936 48.0428571429 51.8097000000
2056 2 103.0627900079 48.0428571429 52.7592000000
2057 1 104.1698828650 46.1253571429 51.8097000000
2058 2 99.7416167936 46.1253571429 48.6232000000
2059 1 100.8486042936 48.0428571429 49.5727000000
2060 2 103.0627900079 48.0428571429 48.6232000000
2061 1 104.1698828650 46.1253571429 49.5727000000
2062 2 99.7416167936 49.9603571429 52.7592000000
2063 1 100.8486042936 51.8778571429 51.8097000000
2064 2 103.0627900079 51.8778571429 52.7592000000
2065 2 99.7416167936 49.9603571429 48.6232000000
2066 1 100.8486042936 51.8778571429 49.5727000000
2067 2 103.0627900079 51.8778571429 48.6232000000
2068 1 104.1698828650 49.9603571429 49.5727000000
2069 2 106.3839947029 46.1253571429 52.7592000000
2070 1 107.4910875600 48.0428571429 51.8097000000
2071 2 109.7051679171 48.0428571429 52.7592000000
2072 2 106.3839947029 46.1253571429 48.6232000000
2073 1 107.4910875600 48.0428571429 49.5727000000
2074 2 109.7051679171 48.0428571429 48.6232000000
2075 1 110.8122607743 46.1253571429 49.5727000000
2076 2 106.3839947029 49.9603571429 52.7592000000
2077 1 107.4910875600 51.8778571429 51.8097000000
2078 2 109.7051679171 51.8778571429 52.7592000000
2079 1 110.8122607743 49.9603571429 51.8097000000
2080 2 106.3839947029 49.9603571429 48.6232000000
2081 1 107.4910875600 51.8778571429 49.5727000000
2082 2 109.7051679171 51.8778571429 48.6232000000
2083 1 110.8122607743 49.9603571429 49.5727000000
2084 2 113.0264464886 46.1253571429 52.7592000000
2085 1 114.1334339886 48.0428571429 51.8097000000
2086 2 116.3476197029 48.0428571429 52.7592000000
2087 1 117.4547125600 46.1253571429 51.8097000000
2088 2 113.0264464886 46.1253571429 48.6232000000
2089 1 114.1334339886 48.0428571429 49.5727000000
2090 2 116.3476197029 48.0428571429 48.6232000000
2091 1 117.4547125600 46.1253571429 49.5727000000
2092 2 113.0264464886 49.9603571429 52.7592000000
2093 1 114.1334339886 51.8778571429 51.8097000000
2094 2 116.3476197029 51.8778571429 52.7592000000
2095 1 117.4547125600 49.9603571429 51.8097000000
2096 2 113.0264464886 49.9603571429 48.6232000000
2097 1 114.1334339886 51.8778571429 49.5727000000
2098 2 116.3476197029 51.8778571429 48.6232000000
2099 1 117.4547125600 49.9603571429 49.5727000000
2100 2 119.6688243979 46.1253571429 52.7592000000
2101 1 120.7759172550 48.0428571429 51.8097000000
2102 2 122.9899976121 48.0428571429 52.7592000000
2103 1 124.0970904693 46.1253571429 51.8097000000
2104 2 119.6688243979 46.1253571429 48.6232000000
2105 2 122.9899976121 48.0428571429 48.6232000000
2106 1 124.0970904693 46.1253571429 49.5727000000
2107 2 119.6688243979 49.9603571429 52.7592000000
2108 1 120.7759172550 51.8778571429 51.8097000000
2109 2 122.9899976121 51.8778571429 52.7592000000
2110 1 124.0970904693 49.9603571429 51.8097000000
2111 2 119.6688243979 49.9603571429 48.6232000000
2112 1 120.7759172550 51.8778571429 49.5727000000
2113 2 122.9899976121 51.8778571429 48.6232000000
2114 1 124.0970904693 49.9603571429 49.5727000000
2115 2 126.3112761836 46.1253571429 52.7592000000
2116 1 127.4182636836 48.0428571429 51.8097000000
2117 2 129.6324493979 48.0428571429 52.7592000000
2118 2 126.3112761836 46.1253571429 48.6232000000
2119 1 127.4182636836 48.0428571429 49.5727000000
2120 2 129.6324493979 48.0428571429 48.6232000000
2121 1 130.7395422550 46.1253571429 49.5727000000
2122 2 126.3112761836 49.9603571429 52.7592000000
2123 1 127.4182636836 51.8778571429 51.8097000000
2124 2 129.6324493979 51.8778571429 52.7592000000
2125 1 130.7395422550 49.9603571429 51.8097000000
2126 2 126.3112761836 49.9603571429 48.6232000000
2127 1 127.4182636836 51.8778571429 49.5727000000
2128 2 129.6324493979 51.8778571429 48.6232000000
2129 1 130.7395422550 49.9603571429 49.5727000000
2130 2 0.1053571429 53.7953571429 52.7592000000
2131 1 1.2124500000 55.7128571429 51.8097000000
2132 2 3.4265303571 55.7128571429 52.7592000000
2133 1 4.5336232143 53.7953571429 51.8097000000
2134 2 0.1053571429 53.7953571429 48.6232000000
2135 1 1.2124500000 55.7128571429 49.5727000000
2136 2 3.4265303571 55.7128571429 48.6232000000
2137 1 4.5336232143 53.7953571429 49.5727000000
2138 2 0.1053571429 57.6303571429 52.7592000000
2139 1 1.2124500000 59.5478571429 51.8097000000
2140 2 3.4265303571 59.5478571429 52.7592000000
2141 1 4.5336232143 57.6303571429 51.8097000000
2142 2 0.1053571429 57.6303571429 48.6232000000
2143 2 3.4265303571 59.5478571429 48.6232000000
2144 1 4.5336232143 57.6303571429 49.5727000000
2145 2 6.7478089286 53.7953571429 52.7592000000
2146 1 7.8547964286 55.7128571429 51.8097000000
2147 2 10.0689821429 55.7128571429 52.7592000000
2148 2 6.7478089286 53.7953571429 48.6232000000
2149 1 7.8547964286 55.7128571429 49.5727000000
2150 2 10.0689821429 55.7128571429 48.6232000000
2151 1 11.1760750000 53.7953571429 49.5727000000
2152 2 6.7478089286 57.6303571429 52.7592000000
2153 2 10.0689821429 59.5478571429 52.7592000000
2154 1 11.1760750000 57.6303571429 51.8097000000
2155 2 6.7478089286 57.6303571429 48.6232000000
2156 1 7.8547964286 59.5478571429 49.5727000000
2157 2 10.0689821429 59.5478571429 48.6232000000
2158 1 11.1760750000 57.6303571429 49.5727000000
2159 2 13.3901868379 53.7953571429 52.7592000000
2160 1 14.4972796950 55.7128571429 51.8097000000
2161 2 16.7113600521 55.7128571429 52.7592000000
2162 1 17.8184529093 53.7953571429 51.8097000000
2163 2 13.3901868379 53.7953571429 48.6232000000
2164 1 14.4972796950 55.7128571429 49.5727000000
2165 2 16.7113600521 55.7128571429 48.6232000000
2166 2 13.3901868379 57.6303571429 52.7592000000
2167 1 14.4972796950 59.5478571429 51.8097000000
2168 2 16.7113600521 59.5478571429 52.7592000000
2169 1 17.8184529093 57.6303571429 51.8097000000
2170 2 13.3901868379 57.6303571429 48.6232000000
2171 2 16.7113600521 59.5478571429 48.6232000000
2172 1 17.8184529093 57.6303571429 49.5727000000
2173 2 20.0326386236 53.7953571429 52.7592000000
2174 1 21.1396261236 55.7128571429 51.8097000000
2175 2 23.3538118379 55.7128571429 52.7592000000
2176 1 24.4609046950 53.7953571429 51.8097000000
2177 2 20.0326386236 53.7953571429 48.6232000000
2178 1 21.1396261236 55.7128571429 49.5727000000
2179 2 23.3538118379 55.7128571429 48.6232000000
2180 2 20.0326386236 57.6303571429 52.7592000000
2181 1 21.1396261236 59.5478571429 51.8097000000
2182 2 23.3538118379 59.5478571429 52.7592000000
2183 1 24.4609046950 57.6303571429 51.8097000000
2184 2 20.0326386236 57.6303571429 48.6232000000
2185 2 23.3538118379 59.5478571429 48.6232000000
2186 1 24.4609046950 57.6303571429 49.5727000000
2187 2 26.6750165329 53.7953571429 52.7592000000
2188 1 27.7821093900 55.7128571429 51.8097000000
2189 2 29.9961897471 55.7128571429 52.7592000000
2190 1 31.1032826043 53.7953571429 51.8097000000
2191 2 26.6750165329 53.7953571429 48.6232000000
2192 1 27.7821093900 55.7128571429 49.5727000000
2193 2 29.9961897471 55.7128571429 48.6232000000
2194 2 26.6750165329 57.6303571429 52.7592000000
2195 2 29.9961897471 59.5478571429 52.7592000000
2196 1 31.1032826043 57.6303571429 51.8097000000
2197 2 26.6750165329 57.6303571429 48.6232000000
2198 1 27.7821093900 59.5478571429 49.5727000000
2199 2 29.9961897471 59.5478571429 48.6232000000
2200 1 31.1032826043 57.6303571429 49.5727000000
2201 2 33.3174683186 53.7953571429 52.7592000000
2202 1 34.4244558186 55.7128571429 51.8097000000
2203 2 36.6386415329 55.7128571429 52.7592000000
2204 1 37.7457343900 53.7953571429 51.8097000000
2205 2 33.3174683186 53.7953571429 48.6232000000
2206 1 34.4244558186 55.7128571429 49.5727000000
2207 2 36.6386415329 55.7128571429 48.6232000000
2208 1 37.7457343900 53.7953571429 49.5727000000
2209 2 33.3174683186 57.6303571429 52.7592000000
2210 1 34.4244558186 59.5478571429 51.8097000000
2211 2 36.6386415329 59.5478571429 52.7592000000
2212 1 37.7457343900 57.6303571429 51.8097000000
2213 2 33.3174683186 57.6303571429 48.6232000000
2214 1 34.4244558186 59.5478571429 49.5727000000
2215 2 36.6386415329 59.5478571429 48.6232000000
2216 1 37.7457343900 57.6303571429 49.5727000000
2217 2 39.9598462279 53.7953571429 52.7592000000
2218 2 43.2810194421 55.7128571429 52.7592000000
2219 1 44.3881122993 53.7953571429 51.8097000000
2220 2 39.9598462279 53.7953571429 48.6232000000
2221 1 41.0669390850 55.7128571429 49.5727000000
2222 2 43.2810194421 55.7128571429 48.6232000000
2223 1 44.3881122993 53.7953571429 49.5727000000
2224 2 39.9598462279 57.6303571429 52.7592000000
2225 1 41.0669390850 59.5478571429 51.8097000000
2226 2 43.2810194421 59.5478571429 52.7592000000
2227 1 44.3881122993 57.6303571429 51.8097000000
2228 2 39.9598462279 57.6303571429 48.6232000000
2229 1 41.0669390850 59.5478571429 49.5727000000
2230 2 43.2810194421 59.5478571429 48.6232000000
2231 1 44.3881122993 57.6303571429 49.5727000000
2232 2 46.6022980136 53.7953571429 52.7592000000
2233 1 47.7092855136 55.7128571429 51.8097000000
2234 2 49.9234712279 55.7128571429 52.7592000000
2235 1 51.0305640850 53.7953571429 51.8097000000
2236 2 46.6022980136 53.7953571429 48.6232000000
2237 1 47.7092855136 55.7128571429 49.5727000000
2238 2 49.9234712279 55.7128571429 48.6232000000
2239 1 51.0305640850 53.7953571429 49.5727000000
2240 2 46.6022980136 57.6303571429 52.7592000000
2241 1 47.7092855136 59.5478571429 51.8097000000
2242 2 49.9234712279 59.5478571429 52.7592000000
2243 1 51.0305640850 57.6303571429 51.8097000000
2244 2 46.6022980136 57.6303571429 48.6232000000
2245 1 47.7092855136 59.5478571429 49.5727000000
2246 2 49.9234712279 59.5478571429 48.6232000000
2247 2 53.2446759229 53.7953571429 52.7592000000
2248 1 54.3517687800 55.7128571429 51.8097000000
2249 2 56.5658491371 55.7128571429 52.7592000000
2250 1 57.6729419943 53.7953571429 51.8097000000
2251 2 53.2446759229 53.7953571429 48.6232000000
2252 1 54.3517687800 55.7128571429 49.5727000000
2253 2 56.5658491371 55.7128571429 48.6232000000
2254 1 57.6729419943 53.7953571429 49.5727000000
2255 2 53.2446759229 57.6303571429 52.7592000000
2256 1 54.3517687800 59.5478571429 51.8097000000
2257 2 56.5658491371 59.5478571429 52.7592000000
2258 1 57.6729419943 57.6303571429 51.8097000000
2259 2 53.2446759229 57.6303571429 48.6232000000
2260 1 54.3517687800 59.5478571429 49.5727000000
2261 2 56.5658491371 59.5478571429 48.6232000000
2262 1 57.6729419943 57.6303571429 49.5727000000
2263 2 59.8871277086 53.7953571429 52.7592000000
2264 2 63.2083009229 55.7128571429 52.7592000000
2265 1 64.3153937800 53.7953571429 51.8097000000
2266 2 59.8871277086 53.7953571429 48.6232000000
2267 1 60.9941152086 55.7128571429 49.5727000000
2268 2 63.2083009229 55.7128571429 48.6232000000
2269 1 64.3153937800 53.7953571429 49.5727000000
2270 2 59.8871277086 57.6303571429 52.7592000000
2271 1 60.9941152086 59.5478571429 51.8097000000
2272 2 63.2083009229 59.5478571429 52.7592000000
2273 1 64.3153937800 57.6303571429 51.8097000000
2274 2 59.8871277086 57.6303571429 48.6232000000
2275 1 60.9941152086 59.5478571429 49.5727000000
2276 2 63.2083009229 59.5478571429 48.6232000000
2277 1 64.3153937800 57.6303571429 49.5727000000
2278 2 66.5295056179 53.7953571429 52.7592000000
2279 2 69.8506788321 55.7128571429 52.7592000000
2280 1 70.9577716893 53.7953571429 51.8097000000
2281 2 66.5295056179 53.7953571429 48.6232000000
2282 1 67.6365984750 55.7128571429 49.5727000000
2283 2 69.8506788321 55.7128571429 48.6232000000
2284 1 70.9577716893 53.7953571429 49.5727000000
2285 2 66.5295056179 57.6303571429 52.7592000000
2286 1 67.6365984750 59.5478571429 51.8097000000
2287 2 69.8506788321 59.5478571429 52.7592000000
2288 1 70.9577716893 57.6303571429 51.8097000000
2289 2 66.5295056179 57.6303571429 48.6232000000
2290 1 67.6365984750 59.5478571429 49.5727000000
2291 2 69.8506788321 59.5478571429 48.6232000000
2292 1 70.9577716893 57.6303571429 49.5727000000
2293 2 73.1719574036 53.7953571429 52.7592000000
2294 2 76.4931306179 55.7128571429 52.7592000000
2295 1 77.6002234750 53.7953571429 51.8097000000
2296 2 73.1719574036 53.7953571429 48.6232000000
2297 1 74.2789449036 55.7128571429 49.5727000000
2298 2 76.4931306179 55.7128571429 48.6232000000
2299 1 77.6002234750 53.7953571429 49.5727000000
2300 2 73.1719574036 57.6303571429 52.7592000000
2301 1 74.2789449036 59.5478571429 51.8097000000
2302 2 76.4931306179 59.5478571429 52.7592000000
2303 1 77.6002234750 57.6303571429 51.8097000000
2304 2 73.1719574036 57.6303571429 48.6232000000
2305 1 74.2789449036 59.5478571429 49.5727000000
2306 2 76.4931306179 59.5478571429 48.6232000000
2307 1 77.6002234750 57.6303571429 49.5727000000
2308 2 79.8143353129 53.7953571429 52.7592000000
2309 1 80.9214281700 55.7128571429 51.8097000000
2310 2 83.1355085271 55.7128571429 52.7592000000
2311 2 79.8143353129 53.7953571429 48.6232000000
2312 1 80.9214281700 55.7128571429 49.5727000000
2313 2 83.1355085271 55.7128571429 48.6232000000
2314 1 84.2426013843 53.7953571429 49.5727000000
2315 2 79.8143353129 57.6303571429 52.7592000000
2316 1 80.9214281700 59.5478571429 51.8097000000
2317 2 83.1355085271 59.5478571429 52.7592000000
2318 1 84.2426013843 57.6303571429 51.8097000000
2319 2 79.8143353129 57.6303571429 48.6232000000
2320 1 80.9214281700 59.5478571429 49.5727000000
2321 2 83.1355085271 59.5478571429 48.6232000000
2322 1 84.2426013843 57.6303571429 49.5727000000
2323 2 86.4567870986 53.7953571429 52.7592000000
2324 1 87.5637745986 55.7128571429 51.8097000000
2325 2 89.7779603129 55.7128571429 52.7592000000
2326 1 90.8850531700 53.7953571429 51.8097000000
2327 2 86.4567870986 53.7953571429 48.6232000000
2328 1 87.5637745986 55.7128571429 49.5727000000
2329 2 89.7779603129 55.7128571429 48.6232000000
2330 1 90.8850531700 53.7953571429 49.5727000000
2331 2 86.4567870986 57.6303571429 52.7592000000
2332 1 87.5637745986 59.5478571429 51.8097000000
2333 2 89.7779603129 59.5478571429 52.7592000000
2334 1 90.8850531700 57.6303571429 51.8097000000
2335 2 86.4567870986 57.6303571429 48.6232000000
2336 1 87.5637745986 59.5478571429 49.5727000000
2337 2 89.7779603129 59.5478571429 48.6232000000
2338 1 90.8850531700 57.6303571429 49.5727000000
2339 2 93.0991650079 53.7953571429 52.7592000000
2340 1 94.2062578650 55.7128571429 51.8097000000
2341 2 96.4203382221 55.7128571429 52.7592000000
2342 1 97.5274310793 53.7953571429 51.8097000000
2343 2 93.0991650079 53.7953571429 48.6232000000
2344 1 94.2062578650 55.7128571429 49.5727000000
2345 2 96.4203382221 55.7128571429 48.6232000000
2346 1 97.5274310793 53.7953571429 49.5727000000
2347 2 93.0991650079 57.6303571429 52.7592000000
2348 1 94.2062578650 59.5478571429 51.8097000000
2349 2 96.4203382221 59.5478571429 52.7592000000
2350 2 93.0991650079 57.6303571429 48.6232000000
2351 1 94.2062578650 59.5478571429 49.5727000000
2352 2 96.4203382221 59.5478571429 48.6232000000
2353 1 97.5274310793 57.6303571429 49.5727000000
2354 2 99.7416167936 53.7953571429 52.7592000000
2355 1 100.8486042936 55.7128571429 51.8097000000
2356 2 103.0627900079 55.7128571429 52.7592000000
2357 1 104.1698828650 53.7953571429 51.8097000000
2358 2 99.7416167936 53.7953571429 48.6232000000
2359 1 100.8486042936 55.7128571429 49.5727000000
2360 2 103.0627900079 55.7128571429 48.6232000000
2361 1 104.1698828650 53.7953571429 49.5727000000
2362 2 99.7416167936 57.6303571429 52.7592000000
2363 1 100.8486042936 59.5478571429 51.8097000000
2364 2 103.0627900079 59.5478571429 52.7592000000
2365 1 104.1698828650 57.6303571429 51.8097000000
2366 2 99.7416167936 57.6303571429 48.6232000000
2367 1 100.8486042936 59.5478571429 49.5727000000
2368 2 103.0627900079 59.5478571429 48.6232000000
2369 2 106.3839947029 53.7953571429 52.7592000000
2370 1 107.4910875600 55.7128571429 51.8097000000
2371 2 109.7051679171 55.7128571429 52.7592000000
2372 1 110.8122607743 53.7953571429 51.8097000000
2373 2 106.3839947029 53.7953571429 48.6232000000
2374 1 107.4910875600 55.7128571429 49.5727000000
2375 2 109.7051679171 55.7128571429 48.6232000000
2376 1 110.8122607743 53.7953571429 49.5727000000
2377 2 106.3839947029 57.6303571429 52.7592000000
2378 1 107.4910875600 59.5478571429 51.8097000000
2379 2 109.7051679171 59.5478571429 52.7592000000
2380 1 110.8122607743 57.6303571429 51.8097000000
2381 2 106.3839947029 57.6303571429 48.6232000000
2382 1 107.4910875600 59.5478571429 49.5727000000
2383 2 109.7051679171 59.5478571429 48.6232000000
2384 1 110.8122607743 57.6303571429 49.5727000000
2385 2 113.0264464886 53.7953571429 52.7592000000
2386 2 116.3476197029 55.7128571429 52.7592000000
2387 1 117.4547125600 53.7953571429 51.8097000000
2388 2 113.0264464886 53.7953571429 48.6232000000
2389 1 114.1334339886 55.7128571429 49.5727000000
2390 2 116.3476197029 55.7128571429 48.6232000000
2391 1 117.4547125600 53.7953571429 49.5727000000
2392 2 113.0264464886 57.6303571429 52.7592000000
2393 1 114.1334339886 59.5478571429 51.8097000000
2394 2 116.3476197029 59.5478571429 52.7592000000
2395 1 117.4547125600 57.6303571429 51.8097000000
2396 2 113.0264464886 57.6303571429 48.6232000000
2397 1 114.1334339886 59.5478571429 49.5727000000
2398 2 116.3476197029 59.5478571429 48.6232000000
2399 1 117.4547125600 57.6303571429 49.5727000000
2400 2 119.6688243979 53.7953571429 52.7592000000
2401 1 120.7759172550 55.7128571429 51.8097000000
2402 2 122.9899976121 55.7128571429 52.7592000000
2403 1 124.0970904693 53.7953571429 51.8097000000
2404 2 119.6688243979 53.7953571429 48.6232000000
2405 1 120.7759172550 55.7128571429 49.5727000000
2406 2 122.9899976121 55.7128571429 48.6232000000
2407 1 124.0970904693 53.7953571429 49.5727000000
2408 2 119.6688243979 57.6303571429 52.7592000000
2409 1 120.7759172550 59.5478571429 51.8097000000
2410 2 122.9899976121 59.5478571429 52.7592000000
2411 1 124.0970904693 57.6303571429 51.8097000000
2412 2 119.6688243979 57.6303571429 48.6232000000
2413 2 122.9899976121 59.5478571429 48.6232000000
2414 1 124.0970904693 57.6303571429 49.5727000000
2415 2 126.3112761836 53.7953571429 52.7592000000
2416 1 127.4182636836 55.7128571429 51.8097000000
2417 2 129.6324493979 55.7128571429 52.7592000000
2418 1 130.7395422550 53.7953571429 51.8097000000
2419 2 126.3112761836 53.7953571429 48.6232000000
2420 1 127.4182636836 55.7128571429 49.5727000000
2421 2 129.6324493979 55.7128571429 48.6232000000
2422 2 126.3112761836 57.6303571429 52.7592000000
2423 1 127.4182636836 59.5478571429 51.8097000000
2424 2 129.6324493979 59.5478571429 52.7592000000
2425 1 130.7395422550 57.6303571429 51.8097000000
2426 2 126.3112761836 57.6303571429 48.6232000000
2427 2 129.6324493979 59.5478571429 48.6232000000
2428 1 130.7395422550 57.6303571429 49.5727000000
2429 2 0.1053571429 61.4653571429 52.7592000000
2430 1 1.2124500000 63.3828571429 51.8097000000
2431 2 3.4265303571 63.3828571429 52.7592000000
2432 1 4.5336232143 61.4653571429 51.8097000000
2433 2 0.1053571429 61.4653571429 48.6232000000
2434 1 1.2124500000 63.3828571429 49.5727000000
2435 2 3.4265303571 63.3828571429 48.6232000000
2436 1 4.5336232143 61.4653571429 49.5727000000
2437 2 0.1053571429 65.3003571429 52.7592000000
2438 1 1.2124500000 67.2178571429 51.8097000000
2439 2 3.4265303571 67.2178571429 52.7592000000
2440 1 4.5336232143 65.3003571429 51.8097000000
2441 2 0.1053571429 65.3003571429 48.6232000000
2442 1 1.2124500000 67.2178571429 49.5727000000
2443 2 3.4265303571 67.2178571429 48.6232000000
2444 1 4.5336232143 65.3003571429 49.5727000000
2445 2 6.7478089286 61.4653571429 52.7592000000
2446 1 7.8547964286 63.3828571429 51.8097000000
2447 2 10.0689821429 63.3828571429 52.7592000000
2448 1 11.1760750000 61.4653571429 51.8097000000
2449 2 6.7478089286 61.4653571429 48.6232000000
2450 1 7.8547964286 63.3828571429 49.5727000000
2451 2 10.0689821429 63.3828571429 48.6232000000
2452 1 11.1760750000 61.4653571429 49.5727000000
2453 2 6.7478089286 65.3003571429 52.7592000000
2454 2 10.0689821429 67.2178571429 52.7592000000
2455 1 11.1760750000 65.3003571429 51.8097000000
2456 2 6.7478089286 65.3003571429 48.6232000000
2457 1 7.8547964286 67.2178571429 49.5727000000
2458 2 10.0689821429 67.2178571429 48.6232000000
2459 1 11.1760750000 65.3003571429 49.5727000000
2460 2 13.3901868379 61.4653571429 52.7592000000
2461 1 14.4972796950 63.3828571429 51.8097000000
2462 2 16.7113600521 63.3828571429 52.7592000000
2463 1 17.8184529093 61.4653571429 51.8097000000
2464 2 13.3901868379 61.4653571429 48.6232000000
2465 1 14.4972796950 63.3828571429 49.5727000000
2466 2 16.7113600521 63.3828571429 48.6232000000
2467 1 17.8184529093 61.4653571429 49.5727000000
2468 2 13.3901868379 65.3003571429 52.7592000000
2469 1 14.4972796950 67.2178571429 51.8097000000
2470 2 16.7113600521 67.2178571429 52.7592000000
2471 1 17.8184529093 65.3003571429 51.8097000000
2472 2 13.3901868379 65.3003571429 48.6232000000
2473 1 14.4972796950 67.2178571429 49.5727000000
2474 2 16.7113600521 67.2178571429 48.6232000000
2475 2 20.0326386236 61.4653571429 52.7592000000
2476 1 21.1396261236 63.3828571429 51.8097000000
2477 2 23.3538118379 63.3828571429 52.7592000000
2478 1 24.4609046950 61.4653571429 51.8097000000
2479 2 20.0326386236 61.4653571429 48.6232000000
2480 1 21.1396261236 63.3828571429 49.5727000000
2481 2 23.3538118379 63.3828571429 48.6232000000
2482 1 24.4609046950 61.4653571429 49.5727000000
2483 2 20.0326386236 65.3003571429 52.7592000000
2484 1 21.1396261236 67.2178571429 51.8097000000
2485 2 23.3538118379 67.2178571429 52.7592000000
2486 1 24.4609046950 65.3003571429 51.8097000000
2487 2 20.0326386236 65.3003571429 48.6232000000
2488 1 21.1396261236 67.2178571429 49.5727000000
2489 2 23.3538118379 67.2178571429 48.6232000000
2490 1 24.4609046950 65.3003571429 49.5727000000
2491 2 26.6750165329 61.4653571429 52.7592000000
2492 1 27.7821093900 63.3828571429 51.8097000000
2493 2 29.9961897471 63.3828571429 52.7592000000
2494 1 31.1032826043 61.4653571429 51.8097000000
2495 2 26.6750165329 61.4653571429 48.6232000000
2496 1 27.7821093900 63.3828571429 49.5727000000
2497 2 29.9961897471 63.3828571429 48.6232000000
2498 1 31.1032826043 61.4653571429 49.5727000000
2499 2 26.6750165329 65.3003571429 52.7592000000
2500 1 27.7821093900 67.2178571429 51.8097000000
2501 2 29.9961897471 67.2178571429 52.7592000000
2502 1 31.1032826043 65.3003571429 51.8097000000
2503 2 26.6750165329 65.3003571429 48.6232000000
2504 2 29.9961897471 67.2178571429 48.6232000000
2505 1 31.1032826043 65.3003571429 49.5727000000
2506 2 33.3174683186 61.4653571429 52.7592000000
2507 1 34.4244558186 63.3828571429 51.8097000000
2508 2 36.6386415329 63.3828571429 52.7592000000
2509 2 33.3174683186 61.4653571429 48.6232000000
2510 1 34.4244558186 63.3828571429 49.5727000000
2511 2 36.6386415329 63.3828571429 48.6232000000
2512 1 37.7457343900 61.4653571429 49.5727000000
2513 2 33.3174683186 65.3003571429 52.7592000000
2514 2 36.6386415329 67.2178571429 52.7592000000
2515 1 37.7457343900 65.3003571429 51.8097000000
2516 2 33.3174683186 65.3003571429 48.6232000000
2517 1 34.4244558186 67.2178571429 49.5727000000
2518 2 36.6386415329 67.2178571429 48.6232000000
2519 1 37.7457343900 65.3003571429 49.5727000000
2520 2 39.9598462279 61.4653571429 52.7592000000
2521 1 41.0669390850 63.3828571429 51.8097000000
2522 2 43.2810194421 63.3828571429 52.7592000000
2523 1 44.3881122993 61.4653571429 51.8097000000
2524 2 39.9598462279 61.4653571429 48.6232000000
2525 1 41.0669390850 63.3828571429 49.5727000000
2526 2 43.2810194421 63.3828571429 48.6232000000
2527 1 44.3881122993 61.4653571429 49.5727000000
2528 2 39.9598462279 65.3003571429 52.7592000000
2529 1 41.0669390850 67.2178571429 51.8097000000
2530 2 43.2810194421 67.2178571429 52.7592000000
2531 1 44.3881122993 65.3003571429 51.8097000000
2532 2 39.9598462279 65.3003571429 48.6232000000
2533 1 41.0669390850 67.2178571429 49.5727000000
2534 2 43.2810194421 67.2178571429 48.6232000000
2535 2 46.6022980136 61.4653571429 52.7592000000
2536 1 47.7092855136 63.3828571429 51.8097000000
2537 2 49.9234712279 63.3828571429 52.7592000000
2538 1 51.0305640850 61.4653571429 51.8097000000
2539 2 46.6022980136 61.4653571429 48.6232000000
2540 1 47.7092855136 63.3828571429 49.5727000000
2541 2 49.9234712279 63.3828571429 48.6232000000
2542 1 51.0305640850 61.4653571429 49.5727000000
2543 2 46.6022980136 65.3003571429 52.7592000000
2544 1 47.7092855136 67.2178571429 51.8097000000
2545 2 49.9234712279 67.2178571429 52.7592000000
2546 1 51.0305640850 65.3003571429 51.8097000000
2547 2 46.6022980136 65.3003571429 48.6232000000
2548 1 47.7092855136 67.2178571429 49.5727000000
2549 2 49.9234712279 67.2178571429 48.6232000000
2550 1 51.0305640850 65.3003571429 49.5727000000
2551 2 53.2446759229 61.4653571429 52.7592000000
2552 1 54.3517687800 63.3828571429 51.8097000000
2553 2 56.5658491371 63.3828571429 52.7592000000
2554 1 57.6729419943 61.4653571429 51.8097000000
2555 2 53.2446759229 61.4653571429 48.6232000000
2556 1 54.3517687800 63.3828571429 49.5727000000
2557 2 56.5658491371 63.3828571429 48.6232000000
2558 2 53.2446759229 65.3003571429 52.7592000000
2559 1 54.3517687800 67.2178571429 51.8097000000
2560 2 56.5658491371 67.2178571429 52.7592000000
2561 1 57.6729419943 65.3003571429 51.8097000000
2562 2 53.2446759229 65.3003571429 48.6232000000
2563 1 54.3517687800 67.2178571429 49.5727000000
2564 2 56.5658491371 67.2178571429 48.6232000000
2565 1 57.6729419943 65.3003571429 49.5727000000
2566 2 59.8871277086 61.4653571429 52.7592000000
2567 1 60.9941152086 63.3828571429 51.8097000000
2568 2 63.2083009229 63.3828571429 52.7592000000
2569 1 64.3153937800 61.4653571429 51.8097000000
2570 2 59.8871277086 61.4653571429 48.6232000000
2571 1 60.9941152086 63.3828571429 49.5727000000
2572 2 63.2083009229 63.3828571429 48.6232000000
2573 1 64.3153937800 61.4653571429 49.5727000000
2574 2 59.8871277086 65.3003571429 52.7592000000
2575 2 63.2083009229 67.2178571429 52.7592000000
2576 1 64.3153937800 65.3003571429 51.8097000000
2577 2 59.8871277086 65.3003571429 48.6232000000
2578 1 60.9941152086 67.2178571429 49.5727000000
2579 2 63.2083009229 67.2178571429 48.6232000000
2580 1 64.3153937800 65.3003571429 49.5727000000
2581 2 66.5295056179 61.4653571429 52.7592000000
2582 1 67.6365984750 63.3828571429 51.8097000000
2583 2 69.8506788321 63.3828571429 52.7592000000
2584 1 70.9577716893 61.4653571429 51.8097000000
2585 2 66.5295056179 61.4653571429 48.6232000000
2586 1 67.6365984750 63.3828571429 49.5727000000
2587 2 69.8506788321 63.3828571429 48.6232000000
2588 2 66.5295056179 65.3003571429 52.7592000000
2589 1 67.6365984750 67.2178571429 51.8097000000
2590 2 69.8506788321 67.2178571429 52.7592000000
2591 1 70.9577716893 65.3003571429 51.8097000000
2592 2 66.5295056179 65.3003571429 48.6232000000
2593 2 69.8506788321 67.2178571429 48.6232000000
2594 1 70.9577716893 65.3003571429 49.5727000000
2595 2 73.1719574036 61.4653571429 52.7592000000
2596 1 74.2789449036 63.3828571429 51.8097000000
2597 2 76.4931306179 63.3828571429 52.7592000000
2598 1 77.6002234750 61.4653571429 51.8097000000
2599 2 73.1719574036 61.4653571429 48.6232000000
2600 1 74.2789449036 63.3828571429 49.5727000000
2601 2 76.4931306179 63.3828571429 48.6232000000
2602 1 77.6002234750 61.4653571429 49.5727000000
2603 2 73.1719574036 65.3003571429 52.7592000000
2604 1 74.2789449036 67.2178571429 51.8097000000
2605 2 76.4931306179 67.2178571429 52.7592000000
2606 1 77.6002234750 65.3003571429 51.8097000000
2607 2 73.1719574036 65.3003571429 48.6232000000
2608 1 74.2789449036 67.2178571429 49.5727000000
2609 2 76.4931306179 67.2178571429 48.6232000000
2610 1 77.6002234750 65.3003571429 49.5727000000
2611 2 79.8143353129 61.4653571429 52.7592000000
2612 2 83.1355085271 63.3828571429 52.7592000000
2613 1 84.2426013843 61.4653571429 51.8097000000
2614 2 79.8143353129 61.4653571429 48.6232000000
2615 1 80.9214281700 63.3828571429 49.5727000000
2616 2 83.1355085271 63.3828571429 48.6232000000
2617 1 84.2426013843 61.4653571429 49.5727000000
2618 2 79.8143353129 65.3003571429 52.7592000000
2619 1 80.9214281700 67.2178571429 51.8097000000
2620 2 83.1355085271 67.2178571429 52.7592000000
2621 1 84.2426013843 65.3003571429 51.8097000000
2622 2 79.8143353129 65.3003571429 48.6232000000
2623 1 80.9214281700 67.2178571429 49.5727000000
2624 2 83.1355085271 67.2178571429 48.6232000000
2625 1 84.2426013843 65.3003571429 49.5727000000
2626 2 86.4567870986 61.4653571429 52.7592000000
2627 1 87.5637745986 63.3828571429 51.8097000000
2628 2 89.7779603129 63.3828571429 52.7592000000
2629 2 86.4567870986 61.4653571429 48.6232000000
2630 1 87.5637745986 63.3828571429 49.5727000000
2631 2 89.7779603129 63.3828571429 48.6232000000
2632 1 90.8850531700 61.4653571429 49.5727000000
2633 2 86.4567870986 65.3003571429 52.7592000000
2634 1 87.5637745986 67.2178571429 51.8097000000
2635 2 89.7779603129 67.2178571429 52.7592000000
2636 1 90.8850531700 65.3003571429 51.8097000000
2637 2 86.4567870986 65.3003571429 48.6232000000
2638 1 87.5637745986 67.2178571429 49.5727000000
2639 2 89.7779603129 67.2178571429 48.6232000000
2640 1 90.8850531700 65.3003571429 49.5727000000
2641 2 93.0991650079 61.4653571429 52.7592000000
2642 1 94.2062578650 63.3828571429 51.8097000000
2643 2 96.4203382221 63.3828571429 52.7592000000
2644 1 97.5274310793 61.4653571429 51.8097000000
2645 2 93.0991650079 61.4653571429 48.6232000000
2646 1 94.2062578650 63.3828571429 49.5727000000
2647 2 96.4203382221 63.3828571429 48.6232000000
2648 1 97.5274310793 61.4653571429 49.5727000000
2649 2 93.0991650079 65.3003571429 52.7592000000
2650 1 94.2062578650 67.2178571429 51.8097000000
2651 2 96.4203382221 67.2178571429 52.7592000000
2652 1 97.5274310793 65.3003571429 51.8097000000
2653 2 93.0991650079 65.3003571429 48.6232000000
2654 2 96.4203382221 67.2178571429 48.6232000000
2655 1 97.5274310793 65.3003571429 49.5727000000
2656 2 99.7416167936 61.4653571429 52.7592000000
2657 1 100.8486042936 63.3828571429 51.8097000000
2658 2 103.0627900079 63.3828571429 52.7592000000
2659 1 104.1698828650 61.4653571429 51.8097000000
2660 2 99.7416167936 61.4653571429 48.6232000000
2661 1 100.8486042936 63.3828571429 49.5727000000
2662 2 103.0627900079 63.3828571429 48.6232000000
2663 1 104.1698828650 61.4653571429 49.5727000000
2664 2 99.7416167936 65.3003571429 52.7592000000
2665 2 103.0627900079 67.2178571429 52.7592000000
2666 1 104.1698828650 65.3003571429 51.8097000000
2667 2 99.7416167936 65.3003571429 48.6232000000
2668 1 100.8486042936 67.2178571429 49.5727000000
2669 2 103.0627900079 67.2178571429 48.6232000000
2670 1 104.1698828650 65.3003571429 49.5727000000
2671 2 106.3839947029 61.4653571429 52.7592000000
2672 1 107.4910875600 63.3828571429 51.8097000000
2673 2 109.7051679171 63.3828571429 52.7592000000
2674 1 110.8122607743 61.4653571429 51.8097000000
2675 2 106.3839947029 61.4653571429 48.6232000000
2676 1 107.4910875600 63.3828571429 49.5727000000
2677 2 109.7051679171 63.3828571429 48.6232000000
2678 1 110.8122607743 61.4653571429 49.5727000000
2679 2 106.3839947029 65.3003571429 52.7592000000
2680 1 107.4910875600 67.2178571429 51.8097000000
2681 2 109.7051679171 67.2178571429 52.7592000000
2682 2 106.3839947029 65.3003571429 48.6232000000
2683 1 107.4910875600 67.2178571429 49.5727000000
2684 2 109.7051679171 67.2178571429 48.6232000000
2685 1 110.8122607743 65.3003571429 49.5727000000
2686 2 113.0264464886 61.4653571429 52.7592000000
2687 1 114.1334339886 63.3828571429 51.8097000000
2688 2 116.3476197029 63.3828571429 52.7592000000
2689 1 117.4547125600 61.4653571429 51.8097000000
2690 2 113.0264464886 61.4653571429 48.6232000000
2691 1 114.1334339886 63.3828571429 49.5727000000
2692 2 116.3476197029 63.3828571429 48.6232000000
2693 1 117.4547125600 61.4653571429 49.5727000000
2694 2 113.0264464886 65.3003571429 52.7592000000
2695 1 114.1334339886 67.2178571429 51.8097000000
2696 2 116.3476197029 67.2178571429 52.7592000000
2697 1 117.4547125600 65.3003571429 51.8097000000
2698 2 113.0264464886 65.3003571429 48.6232000000
2699 1 114.1334339886 67.2178571429 49.5727000000
2700 2 116.3476197029 67.2178571429 48.6232000000
2701 1 117.4547125600 65.3003571429 49.5727000000
2702 2 119.6688243979 61.4653571429 52.7592000000
2703 1 120.7759172550 63.3828571429 51.8097000000
2704 2 122.9899976121 63.3828571429 52.7592000000
2705 1 124.0970904693 61.4653571429 51.8097000000
2706 2 119.6688243979 61.4653571429 48.6232000000
2707 1 120.7759172550 63.3828571429 49.5727000000
2708 2 122.9899976121 63.3828571429 48.6232000000
2709 1 124.0970904693 61.4653571429 49.5727000000
2710 2 119.6688243979 65.3003571429 52.7592000000
2711 2 122.9899976121 67.2178571429 52.7592000000
2712 1 124.0970904693 65.3003571429 51.8097000000
2713 2 119.6688243979 65.3003571429 48.6232000000
2714 1 120.7759172550 67.2178571429 49.5727000000
2715 2 122.9899976121 67.2178571429 48.6232000000
2716 1 124.0970904693 65.3003571429 49.5727000000
2717 2 126.3112761836 61.4653571429 52.7592000000
2718 1 127.4182636836 63.3828571429 51.8097000000
2719 2 129.6324493979 63.3828571429 52.7592000000
2720 1 130.7395422550 61.4653571429 51.8097000000
2721 2 126.3112761836 61.4653571429 48.6232000000
2722 1 127.4182636836 63.3828571429 49.5727000000
2723 2 129.6324493979 63.3828571429 48.6232000000
2724 1 130.7395422550 61.4653571429 49.5727000000
2725 2 126.3112761836 65.3003571429 52.7592000000
2726 1 127.4182636836 67.2178571429 51.8097000000
2727 2 129.6324493979 67.2178571429 52.7592000000
2728 1 130.7395422550 65.3003571429 51.8097000000
2729 2 126.3112761836 65.3003571429 48.6232000000
2730 1 127.4182636836 67.2178571429 49.5727000000
2731 2 129.6324493979 67.2178571429 48.6232000000
2732 2 0.1053571429 69.1353571429 52.7592000000
2733 1 1.2124500000 71.0528571429 51.8097000000
2734 2 3.4265303571 71.0528571429 52.7592000000
2735 1 4.5336232143 69.1353571429 51.8097000000
2736 2 0.1053571429 69.1353571429 48.6232000000
2737 1 1.2124500000 71.0528571429 49.5727000000
2738 2 3.4265303571 71.0528571429 48.6232000000
2739 1 4.5336232143 69.1353571429 49.5727000000
2740 2 0.1053571429 72.9703571429 52.7592000000
2741 1 1.2124500000 74.8878571429 51.8097000000
2742 2 3.4265303571 74.8878571429 52.7592000000
2743 1 4.5336232143 72.9703571429 51.8097000000
2744 2 0.1053571429 72.9703571429 48.6232000000
2745 1 1.2124500000 74.8878571429 49.5727000000
2746 2 3.4265303571 74.8878571429 48.6232000000
2747 1 4.5336232143 72.9703571429 49.5727000000
2748 2 6.7478089286 69.1353571429 52.7592000000
2749 1 7.8547964286 71.0528571429 51.8097000000
2750 2 10.0689821429 71.0528571429 52.7592000000
2751 1 11.1760750000 69.1353571429 51.8097000000
2752 2 6.7478089286 69.1353571429 48.6232000000
2753 1 7.8547964286 71.0528571429 49.5727000000
2754 2 10.0689821429 71.0528571429 48.6232000000
2755 1 11.1760750000 69.1353571429 49.5727000000
2756 2 6.7478089286 72.9703571429 52.7592000000
2757 1 7.8547964286 74.8878571429 51.8097000000
2758 2 10.0689821429 74.8878571429 52.7592000000
2759 2 6.7478089286 72.9703571429 48.6232000000
2760 1 7.8547964286 74.8878571429 49.5727000000
2761 2 10.0689821429 74.8878571429 48.6232000000
2762 1 11.1760750000 72.9703571429 49.5727000000
2763 2 13.3901868379 69.1353571429 52.7592000000
2764 1 14.4972796950 71.0528571429 51.8097000000
2765 2 16.7113600521 71.0528571429 52.7592000000
2766 1 17.8184529093 69.1353571429 51.8097000000
2767 2 13.3901868379 69.1353571429 48.6232000000
2768 1 14.4972796950 71.0528571429 49.5727000000
2769 2 16.7113600521 71.0528571429 48.6232000000
2770 1 17.8184529093 69.1353571429 49.5727000000
2771 2 13.3901868379 72.9703571429 52.7592000000
2772 1 14.4972796950 74.8878571429 51.8097000000
2773 2 16.7113600521 74.8878571429 52.7592000000
2774 1 17.8184529093 72.9703571429 51.8097000000
2775 2 13.3901868379 72.9703571429 48.6232000000
2776 1 14.4972796950 74.8878571429 49.5727000000
2777 2 16.7113600521 74.8878571429 48.6232000000
2778 2 20.0326386236 69.1353571429 52.7592000000
2779 1 21.1396261236 71.0528571429 51.8097000000
2780 2 23.3538118379 71.0528571429 52.7592000000
2781 1 24.4609046950 69.1353571429 51.8097000000
2782 2 20.0326386236 69.1353571429 48.6232000000
2783 1 21.1396261236 71.0528571429 49.5727000000
2784 2 23.3538118379 71.0528571429 48.6232000000
2785 1 24.4609046950 69.1353571429 49.5727000000
2786 2 20.0326386236 72.9703571429 52.7592000000
2787 1 21.1396261236 74.8878571429 51.8097000000
2788 2 23.3538118379 74.8878571429 52.7592000000
2789 1 24.4609046950 72.9703571429 51.8097000000
2790 2 20.0326386236 72.9703571429 48.6232000000
2791 1 21.1396261236 74.8878571429 49.5727000000
2792 2 23.3538118379 74.8878571429 48.6232000000
2793 2 26.6750165329 69.1353571429 52.7592000000
2794 1 27.7821093900 71.0528571429 51.8097000000
2795 2 29.9961897471 71.0528571429 52.7592000000
2796 1 31.1032826043 69.1353571429 51.8097000000
2797 2 26.6750165329 69.1353571429 48.6232000000
2798 1 27.7821093900 71.0528571429 49.5727000000
2799 2 29.9961897471 71.0528571429 48.6232000000
2800 1 31.1032826043 69.1353571429 49.5727000000
2801 2 26.6750165329 72.9703571429 52.7592000000
2802 1 27.7821093900 74.8878571429 51.8097000000
2803 2 29.9961897471 74.8878571429 52.7592000000
2804 2 26.6750165329 72.9703571429 48.6232000000
2805 1 27.7821093900 74.8878571429 49.5727000000
2806 2 29.9961897471 74.8878571429 48.6232000000
2807 1 31.1032826043 72.9703571429 49.5727000000
2808 2 33.3174683186 69.1353571429 52.7592000000
2809 1 34.4244558186 71.0528571429 51.8097000000
2810 2 36.6386415329 71.0528571429 52.7592000000
2811 1 37.7457343900 69.1353571429 51.8097000000
2812 2 33.3174683186 69.1353571429 48.6232000000
2813 1 34.4244558186 71.0528571429 49.5727000000
2814 2 36.6386415329 71.0528571429 48.6232000000
2815 1 37.7457343900 69.1353571429 49.5727000000
2816 2 33.3174683186 72.9703571429 52.7592000000
2817 1 34.4244558186 74.8878571429 51.8097000000
2818 2 36.6386415329 74.8878571429 52.7592000000
2819 1 37.7457343900 72.9703571429 51.8097000000
2820 2 33.3174683186 72.9703571429 48.6232000000
2821 1 34.4244558186 74.8878571429 49.5727000000
2822 2 36.6386415329 74.8878571429 48.6232000000
2823 1 37.7457343900 72.9703571429 49.5727000000
2824 2 39.9598462279 69.1353571429 52.7592000000
2825 1 41.0669390850 71.0528571429 51.8097000000
2826 2 43.2810194421 71.0528571429 52.7592000000
2827 1 44.3881122993 69.1353571429 51.8097000000
2828 2 39.9598462279 69.1353571429 48.6232000000
2829 2 43.2810194421 71.0528571429 48.6232000000
2830 1 44.3881122993 69.1353571429 49.5727000000
2831 2 39.9598462279 72.9703571429 52.7592000000
2832 1 41.0669390850 74.8878571429 51.8097000000
2833 2 43.2810194421 74.8878571429 52.7592000000
2834 1 44.3881122993 72.9703571429 51.8097000000
2835 2 39.9598462279 72.9703571429 48.6232000000
2836 1 41.0669390850 74.8878571429 49.5727000000
2837 2 43.2810194421 74.8878571429 48.6232000000
2838 1 44.3881122993 72.9703571429 49.5727000000
2839 2 46.6022980136 69.1353571429 52.7592000000
2840 1 47.7092855136 71.0528571429 51.8097000000
2841 2 49.9234712279 71.0528571429 52.7592000000
2842 1 51.0305640850 69.1353571429 51.8097000000
2843 2 46.6022980136 69.1353571429 48.6232000000
2844 1 47.7092855136 71.0528571429 49.5727000000
2845 2 49.9234712279 71.0528571429 48.6232000000
2846 2 46.6022980136 72.9703571429 52.7592000000
2847 1 47.7092855136 74.8878571429 51.8097000000
2848 2 49.9234712279 74.8878571429 52.7592000000
2849 1 51.0305640850 72.9703571429 51.8097000000
2850 2 46.6022980136 72.9703571429 48.6232000000
2851 1 47.7092855136 74.8878571429 49.5727000000
2852 2 49.9234712279 74.8878571429 48.6232000000
2853 1 51.0305640850 72.9703571429 49.5727000000
2854 2 53.2446759229 69.1353571429 52.7592000000
2855 1 54.3517687800 71.0528571429 51.8097000000
2856 2 56.5658491371 71.0528571429 52.7592000000
2857 1 57.6729419943 69.1353571429 51.8097000000
2858 2 53.2446759229 69.1353571429 48.6232000000
2859 1 54.3517687800 71.0528571429 49.5727000000
2860 2 56.5658491371 71.0528571429 48.6232000000
2861 1 57.6729419943 69.1353571429 49.5727000000
2862 2 53.2446759229 72.9703571429 52.7592000000
2863 1 54.3517687800 74.8878571429 51.8097000000
2864 2 56.5658491371 74.8878571429 52.7592000000
2865 1 57.6729419943 72.9703571429 51.8097000000
2866 2 53.2446759229 72.9703571429 48.6232000000
2867 1 54.3517687800 74.8878571429 49.5727000000
2868 2 56.5658491371 74.8878571429 48.6232000000
2869 1 57.6729419943 72.9703571429 49.5727000000
2870 2 59.8871277086 69.1353571429 52.7592000000
2871 1 60.9941152086 71.0528571429 51.8097000000
2872 2 63.2083009229 71.0528571429 52.7592000000
2873 1 64.3153937800 69.1353571429 51.8097000000
2874 2 59.8871277086 69.1353571429 48.6232000000
2875 1 60.9941152086 71.0528571429 49.5727000000
2876 2 63.2083009229 71.0528571429 48.6232000000
2877 1 64.3153937800 69.1353571429 49.5727000000
2878 2 59.8871277086 72.9703571429 52.7592000000
2879 1 60.9941152086 74.8878571429 51.8097000000
2880 2 63.2083009229 74.8878571429 52.7592000000
2881 1 64.3153937800 72.9703571429 51.8097000000
2882 2 59.8871277086 72.9703571429 48.6232000000
2883 1 60.9941152086 74.8878571429 49.5727000000
2884 2 63.2083009229 74.8878571429 48.6232000000
2885 2 66.5295056179 69.1353571429 52.7592000000
2886 1 67.6365984750 71.0528571429 51.8097000000
2887 2 69.8506788321 71.0528571429 52.7592000000
2888 1 70.9577716893 69.1353571429 51.8097000000
2889 2 66.5295056179 69.1353571429 48.6232000000
2890 1 67.6365984750 71.0528571429 49.5727000000
2891 2 69.8506788321 71.0528571429 48.6232000000
2892 1 70.9577716893 69.1353571429 49.5727000000
2893 2 66.5295056179 72.9703571429 52.7592000000
2894 1 67.6365984750 74.8878571429 51.8097000000
2895 2 69.8506788321 74.8878571429 52.7592000000
2896 2 66.5295056179 72.9703571429 48.6232000000
2897 1 67.6365984750 74.8878571429 49.5727000000
2898 2 69.8506788321 74.8878571429 48.6232000000
2899 1 70.9577716893 72.9703571429 49.5727000000
2900 2 73.1719574036 69.1353571429 52.7592000000
2901 1 74.2789449036 71.0528571429 51.8097000000
2902 2 76.4931306179 71.0528571429 52.7592000000
2903 1 77.6002234750 69.1353571429 51.8097000000
2904 2 73.1719574036 69.1353571429 48.6232000000
2905 1 74.2789449036 71.0528571429 49.5727000000
2906 2 76.4931306179 71.0528571429 48.6232000000
2907 1 77.6002234750 69.1353571429 49.5727000000
2908 2 73.1719574036 72.9703571429 52.7592000000
2909 1 74.2789449036 74.8878571429 51.8097000000
2910 2 76.4931306179 74.8878571429 52.7592000000
2911 1 77.6002234750 72.9703571429 51.8097000000
2912 2 73.1719574036 72.9703571429 48.6232000000
2913 1 74.2789449036 74.8878571429 49.5727000000
2914 2 76.4931306179 74.8878571429 48.6232000000
2915 2 79.8143353129 69.1353571429 52.7592000000
2916 1 80.9214281700 71.0528571429 51.8097000000
2917 2 83.1355085271 71.0528571429 52.7592000000
2918 1 84.2426013843 69.1353571429 51.8097000000
2919 2 79.8143353129 69.1353571429 48.6232000000
2920 1 80.9214281700 71.0528571429 49.5727000000
2921 2 83.1355085271 71.0528571429 48.6232000000
2922 1 84.2426013843 69.1353571429 49.5727000000
2923 2 79.8143353129 72.9703571429 52.7592000000
2924 1 80.9214281700 74.8878571429 51.8097000000
2925 2 83.1355085271 74.8878571429 52.7592000000
2926 2 79.8143353129 72.9703571429 48.6232000000
2927 1 80.9214281700 74.8878571429 49.5727000000
2928 2 83.1355085271 74.8878571429 48.6232000000
2929 1 84.2426013843 72.9703571429 49.5727000000
2930 2 86.4567870986 69.1353571429 52.7592000000
2931 1 87.5637745986 71.0528571429 51.8097000000
2932 2 89.7779603129 71.0528571429 52.7592000000
2933 1 90.8850531700 69.1353571429 51.8097000000
2934 2 86.4567870986 69.1353571429 48.6232000000
2935 1 87.5637745986 71.0528571429 49.5727000000
2936 2 89.7779603129 71.0528571429 48.6232000000
2937 1 90.8850531700 69.1353571429 49.5727000000
2938 2 86.4567870986 72.9703571429 52.7592000000
2939 1 87.5637745986 74.8878571429 51.8097000000
2940 2 89.7779603129 74.8878571429 52.7592000000
2941 1 90.8850531700 72.9703571429 51.8097000000
2942 2 86.4567870986 72.9703571429 48.6232000000
2943 1 87.5637745986 74.8878571429 49.5727000000
2944 2 89.7779603129 74.8878571429 48.6232000000
2945 1 90.8850531700 72.9703571429 49.5727000000
2946 2 93.0991650079 69.1353571429 52.7592000000
2947 1 94.2062578650 71.0528571429 51.8097000000
2948 2 96.4203382221 71.0528571429 52.7592000000
2949 1 97.5274310793 69.1353571429 51.8097000000
2950 2 93.0991650079 69.1353571429 48.6232000000
2951 1 94.2062578650 71.0528571429 49.5727000000
2952 2 96.4203382221 71.0528571429 48.6232000000
2953 1 97.5274310793 69.1353571429 49.5727000000
2954 2 93.0991650079 72.9703571429 52.7592000000
2955 1 94.2062578650 74.8878571429 51.8097000000
2956 2 96.4203382221 74.8878571429 52.7592000000
2957 1 97.5274310793 72.9703571429 51.8097000000
2958 2 93.0991650079 72.9703571429 48.6232000000
2959 1 94.2062578650 74.8878571429 49.5727000000
2960 2 96.4203382221 74.8878571429 48.6232000000
2961 1 97.5274310793 72.9703571429 49.5727000000
2962 2 99.7416167936 69.1353571429 52.7592000000
2963 1 100.8486042936 71.0528571429 51.8097000000
2964 2 103.0627900079 71.0528571429 52.7592000000
2965 1 104.1698828650 69.1353571429 51.8097000000
2966 2 99.7416167936 69.1353571429 48.6232000000
2967 1 100.8486042936 71.0528571429 49.5727000000
2968 2 103.0627900079 71.0528571429 48.6232000000
2969 1 104.1698828650 69.1353571429 49.5727000000
2970 2 99.7416167936 72.9703571429 52.7592000000
2971 2 103.0627900079 74.8878571429 52.7592000000
2972 1 104.1698828650 72.9703571429 51.8097000000
2973 2 99.7416167936 72.9703571429 48.6232000000
2974 1 100.8486042936 74.8878571429 49.5727000000
2975 2 103.0627900079 74.8878571429 48.6232000000
2976 1 104.1698828650 72.9703571429 49.5727000000
2977 2 106.3839947029 69.1353571429 52.7592000000
2978 1 107.4910875600 71.0528571429 51.8097000000
2979 2 109.7051679171 71.0528571429 52.7592000000
2980 1 110.8122607743 69.1353571429 51.8097000000
2981 2 106.3839947029 69.1353571429 48.6232000000
2982 2 109.7051679171 71.0528571429 48.6232000000
2983 1 110.8122607743 69.1353571429 49.5727000000
2984 2 106.3839947029 72.9703571429 52.7592000000
2985 1 107.4910875600 74.8878571429 51.8097000000
2986 2 109.7051679171 74.8878571429 52.7592000000
2987 1 110.8122607743 72.9703571429 51.8097000000
2988 2 106.3839947029 72.9703571429 48.6232000000
2989 1 107.4910875600 74.8878571429 49.5727000000
2990 2 109.7051679171 74.8878571429 48.6232000000
2991 1 110.8122607743 72.9703571429 49.5727000000
2992 2 113.0264464886 69.1353571429 52.7592000000
2993 1 114.1334339886 71.0528571429 51.8097000000
2994 2 116.3476197029 71.0528571429 52.7592000000
2995 1 117.4547125600 69.1353571429 51.8097000000
2996 2 113.0264464886 69.1353571429 48.6232000000
2997 1 114.1334339886 71.0528571429 49.5727000000
2998 2 116.3476197029 71.0528571429 48.6232000000
2999 1 117.4547125600 69.1353571429 49.5727000000
3000 2 113.0264464886 72.9703571429 52.7592000000
3001 2 116.3476197029 74.8878571429 52.7592000000
3002 1 117.4547125600 72.9703571429 51.8097000000
3003 2 113.0264464886 72.9703571429 48.6232000000
3004 1 114.1334339886 74.8878571429 49.5727000000
3005 2 116.3476197029 74.8878571429 48.6232000000
3006 1 117.4547125600 72.9703571429 49.5727000000
3007 2 119.6688243979 69.1353571429 52.7592000000
3008 1 120.7759172550 71.0528571429 51.8097000000
3009 2 122.9899976121 71.0528571429 52.7592000000
3010 1 124.0970904693 69.1353571429 51.8097000000
3011 2 119.6688243979 69.1353571429 48.6232000000
3012 1 120.7759172550 71.0528571429 49.5727000000
3013 2 122.9899976121 71.0528571429 48.6232000000
3014 1 124.0970904693 69.1353571429 49.5727000000
3015 2 119.6688243979 72.9703571429 52.7592000000
3016 1 120.7759172550 74.8878571429 51.8097000000
3017 2 122.9899976121 74.8878571429 52.7592000000
3018 1 124.0970904693 72.9703571429 51.8097000000
3019 2 119.6688243979 72.9703571429 48.6232000000
3020 2 122.9899976121 74.8878571429 48.6232000000
3021 1 124.0970904693 72.9703571429 49.5727000000
3022 2 126.3112761836 69.1353571429 52.7592000000
3023 1 127.4182636836 71.0528571429 51.8097000000
3024 2 129.6324493979 71.0528571429 52.7592000000
3025 1 130.7395422550 69.1353571429 51.8097000000
3026 2 126.3112761836 69.1353571429 48.6232000000
3027 2 129.6324493979 71.0528571429 48.6232000000
3028 1 130.7395422550 69.1353571429 49.5727000000
3029 2 126.3112761836 72.9703571429 52.7592000000
3030 1 127.4182636836 74.8878571429 51.8097000000
3031 2 129.6324493979 74.8878571429 52.7592000000
3032 1 130.7395422550 72.9703571429 51.8097000000
3033 2 126.3112761836 72.9703571429 48.6232000000
3034 1 127.4182636836 74.8878571429 49.5727000000
3035 2 129.6324493979 74.8878571429 48.6232000000
3036 1 130.7395422550 72.9703571429 49.5727000000
3037 2 0.1053571429 76.8053571429 52.7592000000
3038 1 1.2124500000 78.7228571429 51.8097000000
3039 2 3.4265303571 78.7228571429 52.7592000000
3040 1 4.5336232143 76.8053571429 51.8097000000
3041 2 0.1053571429 76.8053571429 48.6232000000
3042 1 1.2124500000 78.7228571429 49.5727000000
3043 2 3.4265303571 78.7228571429 48.6232000000
3044 1 4.5336232143 76.8053571429 49.5727000000
3045 2 0.1053571429 80.6403571429 52.7592000000
3046 2 3.4265303571 82.5578571429 52.7592000000
3047 1 4.5336232143 80.6403571429 51.8097000000
3048 2 0.1053571429 80.6403571429 48.6232000000
3049 1 1.2124500000 82.5578571429 49.5727000000
3050 2 3.4265303571 82.5578571429 48.6232000000
3051 1 4.5336232143 80.6403571429 49.5727000000
3052 2 6.7478089286 76.8053571429 52.7592000000
3053 1 7.8547964286 78.7228571429 51.8097000000
3054 2 10.0689821429 78.7228571429 52.7592000000
3055 1 11.1760750000 76.8053571429 51.8097000000
3056 2 6.7478089286 76.8053571429 48.6232000000
3057 1 7.8547964286 78.7228571429 49.5727000000
3058 2 10.0689821429 78.7228571429 48.6232000000
3059 1 11.1760750000 76.8053571429 49.5727000000
3060 2 6.7478089286 80.6403571429 52.7592000000
3061 1 7.8547964286 82.5578571429 51.8097000000
3062 2 10.0689821429 82.5578571429 52.7592000000
3063 1 11.1760750000 80.6403571429 51.8097000000
3064 2 6.7478089286 80.6403571429 48.6232000000
3065 2 10.0689821429 82.5578571429 48.6232000000
3066 1 11.1760750000 80.6403571429 49.5727000000
3067 2 13.3901868379 76.8053571429 52.7592000000
3068 1 14.4972796950 78.7228571429 51.8097000000
3069 2 16.7113600521 78.7228571429 52.7592000000
3070 1 17.8184529093 76.8053571429 51.8097000000
3071 2 13.3901868379 76.8053571429 48.6232000000
3072 1 14.4972796950 78.7228571429 49.5727000000
3073 2 16.7113600521 78.7228571429 48.6232000000
3074 1 17.8184529093 76.8053571429 49.5727000000
3075 2 13.3901868379 80.6403571429 52.7592000000
3076 2 16.7113600521 82.5578571429 52.7592000000
3077 1 17.8184529093 80.6403571429 51.8097000000
3078 2 13.3901868379 80.6403571429 48.6232000000
3079 1 14.4972796950 82.5578571429 49.5727000000
3080 2 16.7113600521 82.5578571429 48.6232000000
3081 1 17.8184529093 80.6403571429 49.5727000000
3082 2 20.0326386236 76.8053571429 52.7592000000
3083 1 21.1396261236 78.7228571429 51.8097000000
3084 2 23.3538118379 78.7228571429 52.7592000000
3085 1 24.4609046950 76.8053571429 51.8097000000
3086 2 20.0326386236 76.8053571429 48.6232000000
3087 2 23.3538118379 78.7228571429 48.6232000000
3088 1 24.4609046950 76.8053571429 49.5727000000
3089 2 20.0326386236 80.6403571429 52.7592000000
3090 1 21.1396261236 82.5578571429 51.8097000000
3091 2 23.3538118379 82.5578571429 52.7592000000
3092 1 24.4609046950 80.6403571429 51.8097000000
3093 2 20.0326386236 80.6403571429 48.6232000000
3094 1 21.1396261236 82.5578571429 49.5727000000
3095 2 23.3538118379 82.5578571429 48.6232000000
3096 1 24.4609046950 80.6403571429 49.5727000000
3097 2 26.6750165329 76.8053571429 52.7592000000
3098 1 27.7821093900 78.7228571429 51.8097000000
3099 2 29.9961897471 78.7228571429 52.7592000000
3100 1 31.1032826043 76.8053571429 51.8097000000
3101 2 26.6750165329 76.8053571429 48.6232000000
3102 2 29.9961897471 78.7228571429 48.6232000000
3103 1 31.1032826043 76.8053571429 49.5727000000
3104 2 26.6750165329 80.6403571429 52.7592000000
3105 1 27.7821093900 82.5578571429 51.8097000000
3106 2 29.9961897471 82.5578571429 52.7592000000
3107 1 31.1032826043 80.6403571429 51.8097000000
3108 2 26.6750165329 80.6403571429 48.6232000000
3109 1 27.7821093900 82.5578571429 49.5727000000
3110 2 29.9961897471 82.5578571429 48.6232000000
3111 1 31.1032826043 80.6403571429 49.5727000000
3112 2 33.3174683186 76.8053571429 52.7592000000
3113 1 34.4244558186 78.7228571429 51.8097000000
3114 2 36.6386415329 78.7228571429 52.7592000000
3115 1 37.7457343900 76.8053571429 51.8097000000
3116 2 33.3174683186 76.8053571429 48.6232000000
3117 2 36.6386415329 78.7228571429 48.6232000000
3118 1 37.7457343900 76.8053571429 49.5727000000
3119 2 33.3174683186 80.6403571429 52.7592000000
3120 1 34.4244558186 82.5578571429 51.8097000000
3121 2 36.6386415329 82.5578571429 52.7592000000
3122 1 37.7457343900 80.6403571429 51.8097000000
3123 2 33.3174683186 80.6403571429 48.6232000000
3124 1 34.4244558186 82.5578571429 49.5727000000
3125 2 36.6386415329 82.5578571429 48.6232000000
3126 1 37.7457343900 80.6403571429 49.5727000000
3127 2 39.9598462279 76.8053571429 52.7592000000
3128 1 41.0669390850 78.7228571429 51.8097000000
3129 2 43.2810194421 78.7228571429 52.7592000000
3130 1 44.3881122993 76.8053571429 51.8097000000
3131 2 39.9598462279 76.8053571429 48.6232000000
3132 2 43.2810194421 78.7228571429 48.6232000000
3133 1 44.3881122993 76.8053571429 49.5727000000
3134 2 39.9598462279 80.6403571429 52.7592000000
3135 1 41.0669390850 82.5578571429 51.8097000000
3136 2 43.2810194421 82.5578571429 52.7592000000
3137 1 44.3881122993 80.6403571429 51.8097000000
3138 2 39.9598462279 80.6403571429 48.6232000000
3139 1 41.0669390850 82.5578571429 49.5727000000
3140 2 43.2810194421 82.5578571429 48.6232000000
3141 1 44.3881122993 80.6403571429 49.5727000000
3142 2 46.6022980136 76.8053571429 52.7592000000
3143 1 47.7092855136 78.7228571429 51.8097000000
3144 2 49.9234712279 78.7228571429 52.7592000000
3145 1 51.0305640850 76.8053571429 51.8097000000
3146 2 46.6022980136 76.8053571429 48.6232000000
3147 1 47.7092855136 78.7228571429 49.5727000000
3148 2 49.9234712279 78.7228571429 48.6232000000
3149 2 46.6022980136 80.6403571429 52.7592000000
3150 2 49.9234712279 82.5578571429 52.7592000000
3151 1 51.0305640850 80.6403571429 51.8097000000
3152 2 46.6022980136 80.6403571429 48.6232000000
3153 1 47.7092855136 82.5578571429 49.5727000000
3154 2 49.9234712279 82.5578571429 48.6232000000
3155 1 51.0305640850 80.6403571429 49.5727000000
3156 2 53.2446759229 76.8053571429 52.7592000000
3157 1 54.3517687800 78.7228571429 51.8097000000
3158 2 56.5658491371 78.7228571429 52.7592000000
3159 1 57.6729419943 76.8053571429 51.8097000000
3160 2 53.2446759229 76.8053571429 48.6232000000
3161 1 54.3517687800 78.7228571429 49.5727000000
3162 2 56.5658491371 78.7228571429 48.6232000000
3163 1 57.6729419943 76.8053571429 49.5727000000
3164 2 53.2446759229 80.6403571429 52.7592000000
3165 1 54.3517687800 82.5578571429 51.8097000000
3166 2 56.5658491371 82.5578571429 52.7592000000
3167 1 57.6729419943 80.6403571429 51.8097000000
3168 2 53.2446759229 80.6403571429 48.6232000000
3169 1 54.3517687800 82.5578571429 49.5727000000
3170 2 56.5658491371 82.5578571429 48.6232000000
3171 1 57.6729419943 80.6403571429 49.5727000000
3172 2 59.8871277086 76.8053571429 52.7592000000
3173 1 60.9941152086 78.7228571429 51.8097000000
3174 2 63.2083009229 78.7228571429 52.7592000000
3175 1 64.3153937800 76.8053571429 51.8097000000
3176 2 59.8871277086 76.8053571429 48.6232000000
3177 1 60.9941152086 78.7228571429 49.5727000000
3178 2 63.2083009229 78.7228571429 48.6232000000
3179 1 64.3153937800 76.8053571429 49.5727000000
3180 2 59.8871277086 80.6403571429 52.7592000000
3181 2 63.2083009229 82.5578571429 52.7592000000
3182 1 64.3153937800 80.6403571429 51.8097000000
3183 2 59.8871277086 80.6403571429 48.6232000000
3184 1 60.9941152086 82.5578571429 49.5727000000
3185 2 63.2083009229 82.5578571429 48.6232000000
3186 1 64.3153937800 80.6403571429 49.5727000000
3187 2 66.5295056179 76.8053571429 52.7592000000
3188 1 67.6365984750 78.7228571429 51.8097000000
3189 2 69.8506788321 78.7228571429 52.7592000000
3190 1 70.9577716893 76.8053571429 51.8097000000
3191 2 66.5295056179 76.8053571429 48.6232000000
3192 1 67.6365984750 78.7228571429 49.5727000000
3193 2 69.8506788321 78.7228571429 48.6232000000
3194 1 70.9577716893 76.8053571429 49.5727000000
3195 2 66.5295056179 80.6403571429 52.7592000000
3196 2 69.8506788321 82.5578571429 52.7592000000
3197 1 70.9577716893 80.6403571429 51.8097000000
3198 2 66.5295056179 80.6403571429 48.6232000000
3199 1 67.6365984750 82.5578571429 49.5727000000
3200 2 69.8506788321 82.5578571429 48.6232000000
3201 1 70.9577716893 80.6403571429 49.5727000000
3202 2 73.1719574036 76.8053571429 52.7592000000
3203 1 74.2789449036 78.7228571429 51.8097000000
3204 2 76.4931306179 78.7228571429 52.7592000000
3205 1 77.6002234750 76.8053571429 51.8097000000
3206 2 73.1719574036 76.8053571429 48.6232000000
3207 1 74.2789449036 78.7228571429 49.5727000000
3208 2 76.4931306179 78.7228571429 48.6232000000
3209 1 77.6002234750 76.8053571429 49.5727000000
3210 2 73.1719574036 80.6403571429 52.7592000000
3211 1 74.2789449036 82.5578571429 51.8097000000
3212 2 76.4931306179 82.5578571429 52.7592000000
3213 2 73.1719574036 80.6403571429 48.6232000000
3214 1 74.2789449036 82.5578571429 49.5727000000
3215 2 76.4931306179 82.5578571429 48.6232000000
3216 1 77.6002234750 80.6403571429 49.5727000000
3217 2 79.8143353129 76.8053571429 52.7592000000
3218 1 80.9214281700 78.7228571429 51.8097000000
3219 2 83.1355085271 78.7228571429 52.7592000000
3220 1 84.2426013843 76.8053571429 51.8097000000
3221 2 79.8143353129 76.8053571429 48.6232000000
3222 1 80.9214281700 78.7228571429 49.5727000000
3223 2 83.1355085271 78.7228571429 48.6232000000
3224 1 84.2426013843 76.8053571429 49.5727000000
3225 2 79.8143353129 80.6403571429 52.7592000000
3226 1 80.9214281700 82.5578571429 51.8097000000
3227 2 83.1355085271 82.5578571429 52.7592000000
3228 1 84.2426013843 80.6403571429 51.8097000000
3229 2 79.8143353129 80.6403571429 48.6232000000
3230 1 80.9214281700 82.5578571429 49.5727000000
3231 2 83.1355085271 82.5578571429 48.6232000000
3232 1 84.2426013843 80.6403571429 49.5727000000
3233 2 86.4567870986 76.8053571429 52.7592000000
3234 1 87.5637745986 78.7228571429 51.8097000000
3235 2 89.7779603129 78.7228571429 52.7592000000
3236 2 86.4567870986 76.8053571429 48.6232000000
3237 1 87.5637745986 78.7228571429 49.5727000000
3238 2 89.7779603129 78.7228571429 48.6232000000
3239 1 90.8850531700 76.8053571429 49.5727000000
3240 2 86.4567870986 80.6403571429 52.7592000000
3241 1 87.5637745986 82.5578571429 51.8097000000
3242 2 89.7779603129 82.5578571429 52.7592000000
3243 1 90.8850531700 80.6403571429 51.8097000000
3244 2 86.4567870986 80.6403571429 48.6232000000
3245 1 87.5637745986 82.5578571429 49.5727000000
3246 2 89.7779603129 82.5578571429 48.6232000000
3247 1 90.8850531700 80.6403571429 49.5727000000
3248 2 93.0991650079 76.8053571429 52.7592000000
3249 1 94.2062578650 78.7228571429 51.8097000000
3250 2 96.4203382221 78.7228571429 52.7592000000
3251 1 97.5274310793 76.8053571429 51.8097000000
3252 2 93.0991650079 76.8053571429 48.6232000000
3253 1 94.2062578650 78.7228571429 49.5727000000
3254 2 96.4203382221 78.7228571429 48.6232000000
3255 1 97.5274310793 76.8053571429 49.5727000000
3256 2 93.0991650079 80.6403571429 52.7592000000
3257 1 94.2062578650 82.5578571429 51.8097000000
3258 2 96.4203382221 82.5578571429 52.7592000000
3259 2 93.0991650079 80.6403571429 48.6232000000
3260 1 94.2062578650 82.5578571429 49.5727000000
3261 2 96.4203382221 82.5578571429 48.6232000000
3262 1 97.5274310793 80.6403571429 49.5727000000
3263 2 99.7416167936 76.8053571429 52.7592000000
3264 1 100.8486042936 78.7228571429 51.8097000000
3265 2 103.0627900079 78.7228571429 52.7592000000
3266 1 104.1698828650 76.8053571429 51.8097000000
3267 2 99.7416167936 76.8053571429 48.6232000000
3268 1 100.8486042936 78.7228571429 49.5727000000
3269 2 103.0627900079 78.7228571429 48.6232000000
3270 1 104.1698828650 76.8053571429 49.5727000000
3271 2 99.7416167936 80.6403571429 52.7592000000
3272 1 100.8486042936 82.5578571429 51.8097000000
3273 2 103.0627900079 82.5578571429 52.7592000000
3274 1 104.1698828650 80.6403571429 51.8097000000
3275 2 99.7416167936 80.6403571429 48.6232000000
3276 1 100.8486042936 82.5578571429 49.5727000000
3277 2 103.0627900079 82.5578571429 48.6232000000
3278 1 104.1698828650 80.6403571429 49.5727000000
3279 2 106.3839947029 76.8053571429 52.7592000000
3280 2 109.7051679171 78.7228571429 52.7592000000
3281 1 110.8122607743 76.8053571429 51.8097000000
3282 2 106.3839947029 76.8053571429 48.6232000000
3283 1 107.4910875600 78.7228571429 49.5727000000
3284 2 109.7051679171 78.7228571429 48.6232000000
3285 1 110.8122607743 76.8053571429 49.5727000000
3286 2 106.3839947029 80.6403571429 52.7592000000
3287 1 107.4910875600 82.5578571429 51.8097000000
3288 2 109.7051679171 82.5578571429 52.7592000000
3289 1 110.8122607743 80.6403571429 51.8097000000
3290 2 106.3839947029 80.6403571429 48.6232000000
3291 1 107.4910875600 82.5578571429 49.5727000000
3292 2 109.7051679171 82.5578571429 48.6232000000
3293 1 110.8122607743 80.6403571429 49.5727000000
3294 2 113.0264464886 76.8053571429 52.7592000000
3295 1 114.1334339886 78.7228571429 51.8097000000
3296 2 116.3476197029 78.7228571429 52.7592000000
3297 1 117.4547125600 76.8053571429 51.8097000000
3298 2 113.0264464886 76.8053571429 48.6232000000
3299 1 114.1334339886 78.7228571429 49.5727000000
3300 2 116.3476197029 78.7228571429 48.6232000000
3301 1 117.4547125600 76.8053571429 49.5727000000
3302 2 113.0264464886 80.6403571429 52.7592000000
3303 1 114.1334339886 82.5578571429 51.8097000000
3304 2 116.3476197029 82.5578571429 52.7592000000
3305 1 117.4547125600 80.6403571429 51.8097000000
3306 2 113.0264464886 80.6403571429 48.6232000000
3307 1 114.1334339886 82.5578571429 49.5727000000
3308 2 116.3476197029 82.5578571429 48.6232000000
3309 2 119.6688243979 76.8053571429 52.7592000000
3310 1 120.7759172550 78.7228571429 51.8097000000
3311 2 122.9899976121 78.7228571429 52.7592000000
3312 1 124.0970904693 76.8053571429 51.8097000000
3313 2 119.6688243979 76.8053571429 48.6232000000
3314 1 120.7759172550 78.7228571429 49.5727000000
3315 2 122.9899976121 78.7228571429 48.6232000000
3316 1 124.0970904693 76.8053571429 49.5727000000
3317 2 119.6688243979 80.6403571429 52.7592000000
3318 1 120.7759172550 82.5578571429 51.8097000000
3319 2 122.9899976121 82.5578571429 52.7592000000
3320 1 124.0970904693 80.6403571429 51.8097000000
3321 2 119.6688243979 80.6403571429 48.6232000000
3322 1 120.7759172550 82.5578571429 49.5727000000
3323 2 122.9899976121 82.5578571429 48.6232000000
3324 1 124.0970904693 80.6403571429 49.5727000000
3325 2 126.3112761836 76.8053571429 52.7592000000
3326 1 127.4182636836 78.7228571429 51.8097000000
3327 2 129.6324493979 78.7228571429 52.7592000000
3328 1 130.7395422550 76.8053571429 51.8097000000
3329 2 126.3112761836 76.8053571429 48.6232000000
3330 1 127.4182636836 78.7228571429 49.5727000000
3331 2 129.6324493979 78.7228571429 48.6232000000
3332 1 130.7395422550 76.8053571429 49.5727000000
3333 2 126.3112761836 80.6403571429 52.7592000000
3334 1 127.4182636836 82.5578571429 51.8097000000
3335 2 129.6324493979 82.5578571429 52.7592000000
3336 1 130.7395422550 80.6403571429 51.8097000000
3337 2 126.3112761836 80.6403571429 48.6232000000
3338 2 129.6324493979 82.5578571429 48.6232000000
3339 1 130.7395422550 80.6403571429 49.5727000000
3340 2 0.1053571429 84.4753571429 52.7592000000
3341 1 1.2124500000 86.3928571429 51.8097000000
3342 2 3.4265303571 86.3928571429 52.7592000000
3343 1 4.5336232143 84.4753571429 51.8097000000
3344 2 0.1053571429 84.4753571429 48.6232000000
3345 1 1.2124500000 86.3928571429 49.5727000000
3346 2 3.4265303571 86.3928571429 48.6232000000
3347 1 4.5336232143 84.4753571429 49.5727000000
3348 2 0.1053571429 88.3103571429 52.7592000000
3349 1 1.2124500000 90.2278571429 51.8097000000
3350 2 3.4265303571 90.2278571429 52.7592000000
3351 1 4.5336232143 88.3103571429 51.8097000000
3352 2 0.1053571429 88.3103571429 48.6232000000
3353 1 1.2124500000 90.2278571429 49.5727000000
3354 2 3.4265303571 90.2278571429 48.6232000000
3355 1 4.5336232143 88.3103571429 49.5727000000
3356 2 6.7478089286 84.4753571429 52.7592000000
3357 1 7.8547964286 86.3928571429 51.8097000000
3358 2 10.0689821429 86.3928571429 52.7592000000
3359 1 11.1760750000 84.4753571429 51.8097000000
3360 2 6.7478089286 84.4753571429 48.6232000000
3361 1 7.8547964286 86.3928571429 49.5727000000
3362 2 10.0689821429 86.3928571429 48.6232000000
3363 1 11.1760750000 84.4753571429 49.5727000000
3364 2 6.7478089286 88.3103571429 52.7592000000
3365 1 7.8547964286 90.2278571429 51.8097000000
3366 2 10.0689821429 90.2278571429 52.7592000000
3367 1 11.1760750000 88.3103571429 51.8097000000
3368 2 6.7478089286 88.3103571429 48.6232000000
3369 1 7.8547964286 90.2278571429 49.5727000000
3370 2 10.0689821429 90.2278571429 48.6232000000
3371 2 13.3901868379 84.4753571429 52.7592000000
3372 1 14.4972796950 86.3928571429 51.8097000000
3373 2 16.7113600521 86.3928571429 52.7592000000
3374 1 17.8184529093 84.4753571429 51.8097000000
3375 2 13.3901868379 84.4753571429 48.6232000000
3376 1 14.4972796950 86.3928571429 49.5727000000
3377 2 16.7113600521 86.3928571429 48.6232000000
3378 1 17.8184529093 84.4753571429 49.5727000000
3379 2 13.3901868379 88.3103571429 52.7592000000
3380 1 14.4972796950 90.2278571429 51.8097000000
3381 2 16.7113600521 90.2278571429 52.7592000000
3382 1 17.8184529093 88.3103571429 51.8097000000
3383 2 13.3901868379 88.3103571429 48.6232000000
3384 1 14.4972796950 90.2278571429 49.5727000000
3385 2 16.7113600521 90.2278571429 48.6232000000
3386 1 17.8184529093 88.3103571429 49.5727000000
3387 2 20.0326386236 84.4753571429 52.7592000000
3388 1 21.1396261236 86.3928571429 51.8097000000
3389 2 23.3538118379 86.3928571429 52.7592000000
3390 1 24.4609046950 84.4753571429 51.8097000000
3391 2 20.0326386236 84.4753571429 48.6232000000
3392 1 21.1396261236 86.3928571429 49.5727000000
3393 2 23.3538118379 86.3928571429 48.6232000000
3394 1 24.4609046950 84.4753571429 49.5727000000
3395 2 20.0326386236 88.3103571429 52.7592000000
3396 1 21.1396261236 90.2278571429 51.8097000000
3397 2 23.3538118379 90.2278571429 52.7592000000
3398 1 24.4609046950 88.3103571429 51.8097000000
3399 2 20.0326386236 88.3103571429 48.6232000000
3400 2 23.3538118379 90.2278571429 48.6232000000
3401 1 24.4609046950 88.3103571429 49.5727000000
3402 2 26.6750165329 84.4753571429 52.7592000000
3403 1 27.7821093900 86.3928571429 51.8097000000
3404 2 29.9961897471 86.3928571429 52.7592000000
3405 1 31.1032826043 84.4753571429 51.8097000000
3406 2 26.6750165329 84.4753571429 48.6232000000
3407 1 27.7821093900 86.3928571429 49.5727000000
3408 2 29.9961897471 86.3928571429 48.6232000000
3409 2 26.6750165329 88.3103571429 52.7592000000
3410 1 27.7821093900 90.2278571429 51.8097000000
3411 2 29.9961897471 90.2278571429 52.7592000000
3412 1 31.1032826043 88.3103571429 51.8097000000
3413 2 26.6750165329 88.3103571429 48.6232000000
3414 1 27.7821093900 90.2278571429 49.5727000000
3415 2 29.9961897471 90.2278571429 48.6232000000
3416 1 31.1032826043 88.3103571429 49.5727000000
3417 2 33.3174683186 84.4753571429 52.7592000000
3418 1 34.4244558186 86.3928571429 51.8097000000
3419 2 36.6386415329 86.3928571429 52.7592000000
3420 2 33.3174683186 84.4753571429 48.6232000000
3421 1 34.4244558186 86.3928571429 49.5727000000
3422 2 36.6386415329 86.3928571429 48.6232000000
3423 1 37.7457343900 84.4753571429 49.5727000000
3424 2 33.3174683186 88.3103571429 52.7592000000
3425 1 34.4244558186 90.2278571429 51.8097000000
3426 2 36.6386415329 90.2278571429 52.7592000000
3427 1 37.7457343900 88.3103571429 51.8097000000
3428 2 33.3174683186 88.3103571429 48.6232000000
3429 2 36.6386415329 90.2278571429 48.6232000000
3430 1 37.7457343900 88.3103571429 49.5727000000
3431 2 39.9598462279 84.4753571429 52.7592000000
3432 1 41.0669390850 86.3928571429 51.8097000000
3433 2 43.2810194421 86.3928571429 52.7592000000
3434 1 44.3881122993 84.4753571429 51.8097000000
3435 2 39.9598462279 84.4753571429 48.6232000000
3436 1 41.0669390850 86.3928571429 49.5727000000
3437 2 43.2810194421 86.3928571429 48.6232000000
3438 1 44.3881122993 84.4753571429 49.5727000000
3439 2 39.9598462279 88.3103571429 52.7592000000
3440 1 41.0669390850 90.2278571429 51.8097000000
3441 2 43.2810194421 90.2278571429 52.7592000000
3442 1 44.3881122993 88.3103571429 51.8097000000
3443 2 39.9598462279 88.3103571429 48.6232000000
3444 1 41.0669390850 90.2278571429 49.5727000000
3445 2 43.2810194421 90.2278571429 48.6232000000
3446 1 44.3881122993 88.3103571429 49.5727000000
3447 2 46.6022980136 84.4753571429 52.7592000000
3448 1 47.7092855136 86.3928571429 51.8097000000
3449 2 49.9234712279 86.3928571429 52.7592000000
3450 1 51.0305640850 84.4753571429 51.8097000000
3451 2 46.6022980136 84.4753571429 48.6232000000
3452 1 47.7092855136 86.3928571429 49.5727000000
3453 2 49.9234712279 86.3928571429 48.6232000000
3454 1 51.0305640850 84.4753571429 49.5727000000
3455 2 46.6022980136 88.3103571429 52.7592000000
3456 1 47.7092855136 90.2278571429 51.8097000000
3457 2 49.9234712279 90.2278571429 52.7592000000
3458 1 51.0305640850 88.3103571429 51.8097000000
3459 2 46.6022980136 88.3103571429 48.6232000000
3460 1 47.7092855136 90.2278571429 49.5727000000
3461 2 49.9234712279 90.2278571429 48.6232000000
3462 1 51.0305640850 88.3103571429 49.5727000000
3463 2 53.2446759229 84.4753571429 52.7592000000
3464 1 54.3517687800 86.3928571429 51.8097000000
3465 2 56.5658491371 86.3928571429 52.7592000000
3466 1 57.6729419943 84.4753571429 51.8097000000
3467 2 53.2446759229 84.4753571429 48.6232000000
3468 1 54.3517687800 86.3928571429 49.5727000000
3469 2 56.5658491371 86.3928571429 48.6232000000
3470 1 57.6729419943 84.4753571429 49.5727000000
3471 2 53.2446759229 88.3103571429 52.7592000000
3472 1 54.3517687800 90.2278571429 51.8097000000
3473 2 56.5658491371 90.2278571429 52.7592000000
3474 1 57.6729419943 88.3103571429 51.8097000000
3475 2 53.2446759229 88.3103571429 48.6232000000
3476 1 54.3517687800 90.2278571429 49.5727000000
3477 2 56.5658491371 90.2278571429 48.6232000000
3478 1 57.6729419943 88.3103571429 49.5727000000
3479 2 59.8871277086 84.4753571429 52.7592000000
3480 1 60.9941152086 86.3928571429 51.8097000000
3481 2 63.2083009229 86.3928571429 52.7592000000
3482 1 64.3153937800 84.4753571429 51.8097000000
3483 2 59.8871277086 84.4753571429 48.6232000000
3484 1 60.9941152086 86.3928571429 49.5727000000
3485 2 63.2083009229 86.3928571429 48.6232000000
3486 1 64.3153937800 84.4753571429 49.5727000000
3487 2 59.8871277086 88.3103571429 52.7592000000
3488 1 60.9941152086 90.2278571429 51.8097000000
3489 2 63.2083009229 90.2278571429 52.7592000000
3490 1 64.3153937800 88.3103571429 51.8097000000
3491 2 59.8871277086 88.3103571429 48.6232000000
3492 1 60.9941152086 90.2278571429 49.5727000000
3493 2 63.2083009229 90.2278571429 48.6232000000
3494 2 66.5295056179 84.4753571429 52.7592000000
3495 1 67.6365984750 86.3928571429 51.8097000000
3496 2 69.8506788321 86.3928571429 52.7592000000
3497 1 70.9577716893 84.4753571429 51.8097000000
3498 2 66.5295056179 84.4753571429 48.6232000000
3499 1 67.6365984750 86.3928571429 49.5727000000
3500 2 69.8506788321 86.3928571429 48.6232000000
3501 1 70.9577716893 84.4753571429 49.5727000000
3502 2 66.5295056179 88.3103571429 52.7592000000
3503 1 67.6365984750 90.2278571429 51.8097000000
3504 2 69.8506788321 90.2278571429 52.7592000000
3505 1 70.9577716893 88.3103571429 51.8097000000
3506 2 66.5295056179 88.3103571429 48.6232000000
3507 1 67.6365984750 90.2278571429 49.5727000000
3508 2 69.8506788321 90.2278571429 48.6232000000
3509 1 70.9577716893 88.3103571429 49.5727000000
3510 2 73.1719574036 84.4753571429 52.7592000000
3511 1 74.2789449036 86.3928571429 51.8097000000
3512 2 76.4931306179 86.3928571429 52.7592000000
3513 1 77.6002234750 84.4753571429 51.8097000000
3514 2 73.1719574036 84.4753571429 48.6232000000
3515 1 74.2789449036 86.3928571429 49.5727000000
3516 2 76.4931306179 86.3928571429 48.6232000000
3517 1 77.6002234750 84.4753571429 49.5727000000
3518 2 73.1719574036 88.3103571429 52.7592000000
3519 1 74.2789449036 90.2278571429 51.8097000000
3520 2 76.4931306179 90.2278571429 52.7592000000
3521 1 77.6002234750 88.3103571429 51.8097000000
3522 2 73.1719574036 88.3103571429 48.6232000000
3523 1 74.2789449036 90.2278571429 49.5727000000
3524 2 76.4931306179 90.2278571429 48.6232000000
3525 1 77.6002234750 88.3103571429 49.5727000000
3526 2 79.8143353129 84.4753571429 52.7592000000
3527 1 80.9214281700 86.3928571429 51.8097000000
3528 2 83.1355085271 86.3928571429 52.7592000000
3529 1 84.2426013843 84.4753571429 51.8097000000
3530 2 79.8143353129 84.4753571429 48.6232000000
3531 2 83.1355085271 86.3928571429 48.6232000000
3532 1 84.2426013843 84.4753571429 49.5727000000
3533 2 79.8143353129 88.3103571429 52.7592000000
3534 1 80.9214281700 90.2278571429 51.8097000000
3535 2 83.1355085271 90.2278571429 52.7592000000
3536 1 84.2426013843 88.3103571429 51.8097000000
3537 2 79.8143353129 88.3103571429 48.6232000000
3538 1 80.9214281700 90.2278571429 49.5727000000
3539 2 83.1355085271 90.2278571429 48.6232000000
3540 1 84.2426013843 88.3103571429 49.5727000000
3541 2 86.4567870986 84.4753571429 52.7592000000
3542 1 87.5637745986 86.3928571429 51.8097000000
3543 2 89.7779603129 86.3928571429 52.7592000000
3544 2 86.4567870986 84.4753571429 48.6232000000
3545 1 87.5637745986 86.3928571429 49.5727000000
3546 2 89.7779603129 86.3928571429 48.6232000000
3547 1 90.8850531700 84.4753571429 49.5727000000
3548 2 86.4567870986 88.3103571429 52.7592000000
3549 2 89.7779603129 90.2278571429 52.7592000000
3550 1 90.8850531700 88.3103571429 51.8097000000
3551 2 86.4567870986 88.3103571429 48.6232000000
3552 1 87.5637745986 90.2278571429 49.5727000000
3553 2 89.7779603129 90.2278571429 48.6232000000
3554 1 90.8850531700 88.3103571429 49.5727000000
3555 2 93.0991650079 84.4753571429 52.7592000000
3556 1 94.2062578650 86.3928571429 51.8097000000
3557 2 96.4203382221 86.3928571429 52.7592000000
3558 1 97.5274310793 84.4753571429 51.8097000000
3559 2 93.0991650079 84.4753571429 48.6232000000
3560 1 94.2062578650 86.3928571429 49.5727000000
3561 2 96.4203382221 86.3928571429 48.6232000000
3562 1 97.5274310793 84.4753571429 49.5727000000
3563 2 93.0991650079 88.3103571429 52.7592000000
3564 1 94.2062578650 90.2278571429 51.8097000000
3565 2 96.4203382221 90.2278571429 52.7592000000
3566 1 97.5274310793 88.3103571429 51.8097000000
3567 2 93.0991650079 88.3103571429 48.6232000000
3568 2 96.4203382221 90.2278571429 48.6232000000
3569 1 97.5274310793 88.3103571429 49.5727000000
3570 2 99.7416167936 84.4753571429 52.7592000000
3571 1 100.8486042936 86.3928571429 51.8097000000
3572 2 103.0627900079 86.3928571429 52.7592000000
3573 1 104.1698828650 84.4753571429 51.8097000000
3574 2 99.7416167936 84.4753571429 48.6232000000
3575 1 100.8486042936 86.3928571429 49.5727000000
3576 2 103.0627900079 86.3928571429 48.6232000000
3577 2 99.7416167936 88.3103571429 52.7592000000
3578 1 100.8486042936 90.2278571429 51.8097000000
3579 2 103.0627900079 90.2278571429 52.7592000000
3580 1 104.1698828650 88.3103571429 51.8097000000
3581 2 99.7416167936 88.3103571429 48.6232000000
3582 1 100.8486042936 90.2278571429 49.5727000000
3583 2 103.0627900079 90.2278571429 48.6232000000
3584 1 104.1698828650 88.3103571429 49.5727000000
3585 2 106.3839947029 84.4753571429 52.7592000000
3586 1 107.4910875600 86.3928571429 51.8097000000
3587 2 109.7051679171 86.3928571429 52.7592000000
3588 1 110.8122607743 84.4753571429 51.8097000000
3589 2 106.3839947029 84.4753571429 48.6232000000
3590 1 107.4910875600 86.3928571429 49.5727000000
3591 2 109.7051679171 86.3928571429 48.6232000000
3592 1 110.8122607743 84.4753571429 49.5727000000
3593 2 106.3839947029 88.3103571429 52.7592000000
3594 1 107.4910875600 90.2278571429 51.8097000000
3595 2 109.7051679171 90.2278571429 52.7592000000
3596 1 110.8122607743 88.3103571429 51.8097000000
3597 2 106.3839947029 88.3103571429 48.6232000000
3598 1 107.4910875600 90.2278571429 49.5727000000
3599 2 109.7051679171 90.2278571429 48.6232000000
3600 2 113.0264464886 84.4753571429 52.7592000000
3601 1 114.1334339886 86.3928571429 51.8097000000
3602 2 116.3476197029 86.3928571429 52.7592000000
3603 1 117.4547125600 84.4753571429 51.8097000000
3604 2 113.0264464886 84.4753571429 48.6232000000
3605 1 114.1334339886 86.3928571429 49.5727000000
3606 2 116.3476197029 86.3928571429 48.6232000000
3607 1 117.4547125600 84.4753571429 49.5727000000
3608 2 113.0264464886 88.3103571429 52.7592000000
3609 1 114.1334339886 90.2278571429 51.8097000000
3610 2 116.3476197029 90.2278571429 52.7592000000
3611 1 117.4547125600 88.3103571429 51.8097000000
3612 2 113.0264464886 88.3103571429 48.6232000000
3613 1 114.1334339886 90.2278571429 49.5727000000
3614 2 116.3476197029 90.2278571429 48.6232000000
3615 2 119.6688243979 84.4753571429 52.7592000000
3616 1 120.7759172550 86.3928571429 51.8097000000
3617 2 122.9899976121 86.3928571429 52.7592000000
3618 1 124.0970904693 84.4753571429 51.8097000000
3619 2 119.6688243979 84.4753571429 48.6232000000
3620 1 120.7759172550 86.3928571429 49.5727000000
3621 2 122.9899976121 86.3928571429 48.6232000000
3622 1 124.0970904693 84.4753571429 49.5727000000
3623 2 119.6688243979 88.3103571429 52.7592000000
3624 1 120.7759172550 90.2278571429 51.8097000000
3625 2 122.9899976121 90.2278571429 52.7592000000
3626 1 124.0970904693 88.3103571429 51.8097000000
3627 2 119.6688243979 88.3103571429 48.6232000000
3628 1 120.7759172550 90.2278571429 49.5727000000
3629 2 122.9899976121 90.2278571429 48.6232000000
3630 1 124.0970904693 88.3103571429 49.5727000000
3631 2 126.3112761836 84.4753571429 52.7592000000
3632 1 127.4182636836 86.3928571429 51.8097000000
3633 2 129.6324493979 86.3928571429 52.7592000000
3634 1 130.7395422550 84.4753571429 51.8097000000
3635 2 126.3112761836 84.4753571429 48.6232000000
3636 1 127.4182636836 86.3928571429 49.5727000000
3637 2 129.6324493979 86.3928571429 48.6232000000
3638 1 130.7395422550 84.4753571429 49.5727000000
3639 2 126.3112761836 88.3103571429 52.7592000000
3640 2 129.6324493979 90.2278571429 52.7592000000
3641 1 130.7395422550 88.3103571429 51.8097000000
3642 2 126.3112761836 88.3103571429 48.6232000000
3643 1 127.4182636836 90.2278571429 49.5727000000
3644 2 129.6324493979 90.2278571429 48.6232000000
3645 1 130.7395422550 88.3103571429 49.5727000000
3646 2 0.1053571429 92.1453571429 52.7592000000
3647 1 1.2124500000 94.0628571429 51.8097000000
3648 2 3.4265303571 94.0628571429 52.7592000000
3649 1 4.5336232143 92.1453571429 51.8097000000
3650 2 0.1053571429 92.1453571429 48.6232000000
3651 1 1.2124500000 94.0628571429 49.5727000000
3652 2 3.4265303571 94.0628571429 48.6232000000
3653 1 4.5336232143 92.1453571429 49.5727000000
3654 2 0.1053571429 95.9803571429 52.7592000000
3655 1 1.2124500000 97.8978571429 51.8097000000
3656 2 3.4265303571 97.8978571429 52.7592000000
3657 1 4.5336232143 95.9803571429 51.8097000000
3658 2 0.1053571429 95.9803571429 48.6232000000
3659 1 1.2124500000 97.8978571429 49.5727000000
3660 2 3.4265303571 97.8978571429 48.6232000000
3661 1 4.5336232143 95.9803571429 49.5727000000
3662 2 6.7478089286 92.1453571429 52.7592000000
3663 1 7.8547964286 94.0628571429 51.8097000000
3664 2 10.0689821429 94.0628571429 52.7592000000
3665 1 11.1760750000 92.1453571429 51.8097000000
3666 2 6.7478089286 92.1453571429 48.6232000000
3667 2 10.0689821429 94.0628571429 48.6232000000
3668 1 11.1760750000 92.1453571429 49.5727000000
3669 2 6.7478089286 95.9803571429 52.7592000000
3670 1 7.8547964286 97.8978571429 51.8097000000
3671 2 10.0689821429 97.8978571429 52.7592000000
3672 1 11.1760750000 95.9803571429 51.8097000000
3673 2 6.7478089286 95.9803571429 48.6232000000
3674 1 7.8547964286 97.8978571429 49.5727000000
3675 2 10.0689821429 97.8978571429 48.6232000000
3676 1 11.1760750000 95.9803571429 49.5727000000
3677 2 13.3901868379 92.1453571429 52.7592000000
3678 1 14.4972796950 94.0628571429 51.8097000000
3679 2 16.7113600521 94.0628571429 52.7592000000
3680 1 17.8184529093 92.1453571429 51.8097000000
3681 2 13.3901868379 92.1453571429 48.6232000000
3682 1 14.4972796950 94.0628571429 49.5727000000
3683 2 16.7113600521 94.0628571429 48.6232000000
3684 1 17.8184529093 92.1453571429 49.5727000000
3685 2 13.3901868379 95.9803571429 52.7592000000
3686 1 14.4972796950 97.8978571429 51.8097000000
3687 2 16.7113600521 97.8978571429 52.7592000000
3688 1 17.8184529093 95.9803571429 51.8097000000
3689 2 13.3901868379 95.9803571429 48.6232000000
3690 1 14.4972796950 97.8978571429 49.5727000000
3691 2 16.7113600521 97.8978571429 48.6232000000
3692 1 17.8184529093 95.9803571429 49.5727000000
3693 2 20.0326386236 92.1453571429 52.7592000000
3694 1 21.1396261236 94.0628571429 51.8097000000
3695 2 23.3538118379 94.0628571429 52.7592000000
3696 1 24.4609046950 92.1453571429 51.8097000000
3697 2 20.0326386236 92.1453571429 48.6232000000
3698 1 21.1396261236 94.0628571429 49.5727000000
3699 2 23.3538118379 94.0628571429 48.6232000000
3700 1 24.4609046950 92.1453571429 49.5727000000
3701 2 20.0326386236 95.9803571429 52.7592000000
3702 2 23.3538118379 97.8978571429 52.7592000000
3703 1 24.4609046950 95.9803571429 51.8097000000
3704 2 20.0326386236 95.9803571429 48.6232000000
3705 1 21.1396261236 97.8978571429 49.5727000000
3706 2 23.3538118379 97.8978571429 48.6232000000
3707 1 24.4609046950 95.9803571429 49.5727000000
3708 2 26.6750165329 92.1453571429 52.7592000000
3709 1 27.7821093900 94.0628571429 51.8097000000
3710 2 29.9961897471 94.0628571429 52.7592000000
3711 1 31.1032826043 92.1453571429 51.8097000000
3712 2 26.6750165329 92.1453571429 48.6232000000
3713 1 27.7821093900 94.0628571429 49.5727000000
3714 2 29.9961897471 94.0628571429 48.6232000000
3715 1 31.1032826043 92.1453571429 49.5727000000
3716 2 26.6750165329 95.9803571429 52.7592000000
3717 2 29.9961897471 97.8978571429 52.7592000000
3718 1 31.1032826043 95.9803571429 51.8097000000
3719 2 26.6750165329 95.9803571429 48.6232000000
3720 1 27.7821093900 97.8978571429 49.5727000000
3721 2 29.9961897471 97.8978571429 48.6232000000
3722 1 31.1032826043 95.9803571429 49.5727000000
3723 2 33.3174683186 92.1453571429 52.7592000000
3724 1 34.4244558186 94.0628571429 51.8097000000
3725 2 36.6386415329 94.0628571429 52.7592000000
3726 1 37.7457343900 92.1453571429 51.8097000000
3727 2 33.3174683186 92.1453571429 48.6232000000
3728 1 34.4244558186 94.0628571429 49.5727000000
3729 2 36.6386415329 94.0628571429 48.6232000000
3730 1 37.7457343900 92.1453571429 49.5727000000
3731 2 33.3174683186 95.9803571429 52.7592000000
3732 2 36.6386415329 97.8978571429 52.7592000000
3733 1 37.7457343900 95.9803571429 51.8097000000
3734 2 33.3174683186 95.9803571429 48.6232000000
3735 1 34.4244558186 97.8978571429 49.5727000000
3736 2 36.6386415329 97.8978571429 48.6232000000
3737 1 37.7457343900 95.9803571429 49.5727000000
3738 2 39.9598462279 92.1453571429 52.7592000000
3739 1 41.0669390850 94.0628571429 51.8097000000
3740 2 43.2810194421 94.0628571429 52.7592000000
3741 1 44.3881122993 92.1453571429 51.8097000000
3742 2 39.9598462279 92.1453571429 48.6232000000
3743 1 41.0669390850 94.0628571429 49.5727000000
3744 2 43.2810194421 94.0628571429 48.6232000000
3745 2 39.9598462279 95.9803571429 52.7592000000
3746 1 41.0669390850 97.8978571429 51.8097000000
3747 2 43.2810194421 97.8978571429 52.7592000000
3748 1 44.3881122993 95.9803571429 51.8097000000
3749 2 39.9598462279 95.9803571429 48.6232000000
3750 1 41.0669390850 97.8978571429 49.5727000000
3751 2 43.2810194421 97.8978571429 48.6232000000
3752 1 44.3881122993 95.9803571429 49.5727000000
3753 2 46.6022980136 92.1453571429 52.7592000000
3754 1 47.7092855136 94.0628571429 51.8097000000
3755 2 49.9234712279 94.0628571429 52.7592000000
3756 1 51.0305640850 92.1453571429 51.8097000000
3757 2 46.6022980136 92.1453571429 48.6232000000
3758 1 47.7092855136 94.0628571429 49.5727000000
3759 2 49.9234712279 94.0628571429 48.6232000000
3760 1 51.0305640850 92.1453571429 49.5727000000
3761 2 46.6022980136 95.9803571429 52.7592000000
3762 1 47.7092855136 97.8978571429 51.8097000000
3763 2 49.9234712279 97.8978571429 52.7592000000
3764 1 51.0305640850 95.9803571429 51.8097000000
3765 2 46.6022980136 95.9803571429 48.6232000000
3766 1 47.7092855136 97.8978571429 49.5727000000
3767 2 49.9234712279 97.8978571429 48.6232000000
3768 1 51.0305640850 95.9803571429 49.5727000000
3769 2 53.2446759229 92.1453571429 52.7592000000
3770 1 54.3517687800 94.0628571429 51.8097000000
3771 2 56.5658491371 94.0628571429 52.7592000000
3772 2 53.2446759229 92.1453571429 48.6232000000
3773 1 54.3517687800 94.0628571429 49.5727000000
3774 2 56.5658491371 94.0628571429 48.6232000000
3775 1 57.6729419943 92.1453571429 49.5727000000
3776 2 53.2446759229 95.9803571429 52.7592000000
3777 1 54.3517687800 97.8978571429 51.8097000000
3778 2 56.5658491371 97.8978571429 52.7592000000
3779 1 57.6729419943 95.9803571429 51.8097000000
3780 2 53.2446759229 95.9803571429 48.6232000000
3781 1 54.3517687800 97.8978571429 49.5727000000
3782 2 56.5658491371 97.8978571429 48.6232000000
3783 1 57.6729419943 95.9803571429 49.5727000000
3784 2 59.8871277086 92.1453571429 52.7592000000
3785 1 60.9941152086 94.0628571429 51.8097000000
3786 2 63.2083009229 94.0628571429 52.7592000000
3787 1 64.3153937800 92.1453571429 51.8097000000
3788 2 59.8871277086 92.1453571429 48.6232000000
3789 1 60.9941152086 94.0628571429 49.5727000000
3790 2 63.2083009229 94.0628571429 48.6232000000
3791 1 64.3153937800 92.1453571429 49.5727000000
3792 2 59.8871277086 95.9803571429 52.7592000000
3793 1 60.9941152086 97.8978571429 51.8097000000
3794 2 63.2083009229 97.8978571429 52.7592000000
3795 1 64.3153937800 95.9803571429 51.8097000000
3796 2 59.8871277086 95.9803571429 48.6232000000
3797 1 60.9941152086 97.8978571429 49.5727000000
3798 2 63.2083009229 97.8978571429 48.6232000000
3799 1 64.3153937800 95.9803571429 49.5727000000
3800 2 66.5295056179 92.1453571429 52.7592000000
3801 1 67.6365984750 94.0628571429 51.8097000000
3802 2 69.8506788321 94.0628571429 52.7592000000
3803 1 70.9577716893 92.1453571429 51.8097000000
3804 2 66.5295056179 92.1453571429 48.6232000000
3805 1 67.6365984750 94.0628571429 49.5727000000
3806 2 69.8506788321 94.0628571429 48.6232000000
3807 2 66.5295056179 95.9803571429 52.7592000000
3808 1 67.6365984750 97.8978571429 51.8097000000
3809 2 69.8506788321 97.8978571429 52.7592000000
3810 1 70.9577716893 95.9803571429 51.8097000000
3811 2 66.5295056179 95.9803571429 48.6232000000
3812 1 67.6365984750 97.8978571429 49.5727000000
3813 2 69.8506788321 97.8978571429 48.6232000000
3814 1 70.9577716893 95.9803571429 49.5727000000
3815 2 73.1719574036 92.1453571429 52.7592000000
3816 1 74.2789449036 94.0628571429 51.8097000000
3817 2 76.4931306179 94.0628571429 52.7592000000
3818 1 77.6002234750 92.1453571429 51.8097000000
3819 2 73.1719574036 92.1453571429 48.6232000000
3820 1 74.2789449036 94.0628571429 49.5727000000
3821 2 76.4931306179 94.0628571429 48.6232000000
3822 2 73.1719574036 95.9803571429 52.7592000000
3823 1 74.2789449036 97.8978571429 51.8097000000
3824 2 76.4931306179 97.8978571429 52.7592000000
3825 1 77.6002234750 95.9803571429 51.8097000000
3826 2 73.1719574036 95.9803571429 48.6232000000
3827 1 74.2789449036 97.8978571429 49.5727000000
3828 2 76.4931306179 97.8978571429 48.6232000000
3829 1 77.6002234750 95.9803571429 49.5727000000
3830 2 79.8143353129 92.1453571429 52.7592000000
3831 1 80.9214281700 94.0628571429 51.8097000000
3832 2 83.1355085271 94.0628571429 52.7592000000
3833 1 84.2426013843 92.1453571429 51.8097000000
3834 2 79.8143353129 92.1453571429 48.6232000000
3835 1 80.9214281700 94.0628571429 49.5727000000
3836 2 83.1355085271 94.0628571429 48.6232000000
3837 1 84.2426013843 92.1453571429 49.5727000000
3838 2 79.8143353129 95.9803571429 52.7592000000
3839 1 80.9214281700 97.8978571429 51.8097000000
3840 2 83.1355085271 97.8978571429 52.7592000000
3841 1 84.2426013843 95.9803571429 51.8097000000
3842 2 79.8143353129 95.9803571429 48.6232000000
3843 1 80.9214281700 97.8978571429 49.5727000000
3844 2 83.1355085271 97.8978571429 48.6232000000
3845 1 84.2426013843 95.9803571429 49.5727000000
3846 2 86.4567870986 92.1453571429 52.7592000000
3847 1 87.5637745986 94.0628571429 51.8097000000
3848 2 89.7779603129 94.0628571429 52.7592000000
3849 1 90.8850531700 92.1453571429 51.8097000000
3850 2 86.4567870986 92.1453571429 48.6232000000
3851 1 87.5637745986 94.0628571429 49.5727000000
3852 2 89.7779603129 94.0628571429 48.6232000000
3853 1 90.8850531700 92.1453571429 49.5727000000
3854 2 86.4567870986 95.9803571429 52.7592000000
3855 2 89.7779603129 97.8978571429 52.7592000000
3856 1 90.8850531700 95.9803571429 51.8097000000
3857 2 86.4567870986 95.9803571429 48.6232000000
3858 1 87.5637745986 97.8978571429 49.5727000000
3859 2 89.7779603129 97.8978571429 48.6232000000
3860 1 90.8850531700 95.9803571429 49.5727000000
3861 2 93.0991650079 92.1453571429 52.7592000000
3862 1 94.2062578650 94.0628571429 51.8097000000
3863 2 96.4203382221 94.0628571429 52.7592000000
3864 1 97.5274310793 92.1453571429 51.8097000000
3865 2 93.0991650079 92.1453571429 48.6232000000
3866 1 94.2062578650 94.0628571429 49.5727000000
3867 2 96.4203382221 94.0628571429 48.6232000000
3868 1 97.5274310793 92.1453571429 49.5727000000
3869 2 93.0991650079 95.9803571429 52.7592000000
3870 1 94.2062578650 97.8978571429 51.8097000000
3871 2 96.4203382221 97.8978571429 52.7592000000
3872 1 97.5274310793 95.9803571429 51.8097000000
3873 2 93.0991650079 95.9803571429 48.6232000000
3874 2 96.4203382221 97.8978571429 48.6232000000
3875 1 97.5274310793 95.9803571429 49.5727000000
3876 2 99.7416167936 92.1453571429 52.7592000000
3877 2 103.0627900079 94.0628571429 52.7592000000
3878 1 104.1698828650 92.1453571429 51.8097000000
3879 2 99.7416167936 92.1453571429 48.6232000000
3880 1 100.8486042936 94.0628571429 49.5727000000
3881 2 103.0627900079 94.0628571429 48.6232000000
3882 1 104.1698828650 92.1453571429 49.5727000000
3883 2 99.7416167936 95.9803571429 52.7592000000
3884 1 100.8486042936 97.8978571429 51.8097000000
3885 2 103.0627900079 97.8978571429 52.7592000000
3886 1 104.1698828650 95.9803571429 51.8097000000
3887 2 99.7416167936 95.9803571429 48.6232000000
3888 1 100.8486042936 97.8978571429 49.5727000000
3889 2 103.0627900079 97.8978571429 48.6232000000
3890 1 104.1698828650 95.9803571429 49.5727000000
3891 2 106.3839947029 92.1453571429 52.7592000000
3892 1 107.4910875600 94.0628571429 51.8097000000
3893 2 109.7051679171 94.0628571429 52.7592000000
3894 1 110.8122607743 92.1453571429 51.8097000000
3895 2 106.3839947029 92.1453571429 48.6232000000
3896 1 107.4910875600 94.0628571429 49.5727000000
3897 2 109.7051679171 94.0628571429 48.6232000000
3898 1 110.8122607743 92.1453571429 49.5727000000
3899 2 106.3839947029 95.9803571429 52.7592000000
3900 2 109.7051679171 97.8978571429 52.7592000000
3901 1 110.8122607743 95.9803571429 51.8097000000
3902 2 106.3839947029 95.9803571429 48.6232000000
3903 1 107.4910875600 97.8978571429 49.5727000000
3904 2 109.7051679171 97.8978571429 48.6232000000
3905 1 110.8122607743 95.9803571429 49.5727000000
3906 2 113.0264464886 92.1453571429 52.7592000000
3907 1 114.1334339886 94.0628571429 51.8097000000
3908 2 116.3476197029 94.0628571429 52.7592000000
3909 1 117.4547125600 92.1453571429 51.8097000000
3910 2 113.0264464886 92.1453571429 48.6232000000
3911 1 114.1334339886 94.0628571429 49.5727000000
3912 2 116.3476197029 94.0628571429 48.6232000000
3913 1 117.4547125600 92.1453571429 49.5727000000
3914 2 113.0264464886 95.9803571429 52.7592000000
3915 1 114.1334339886 97.8978571429 51.8097000000
3916 2 116.3476197029 97.8978571429 52.7592000000
3917 2 113.0264464886 95.9803571429 48.6232000000
3918 1 114.1334339886 97.8978571429 49.5727000000
3919 2 116.3476197029 97.8978571429 48.6232000000
3920 1 117.4547125600 95.9803571429 49.5727000000
3921 2 119.6688243979 92.1453571429 52.7592000000
3922 1 120.7759172550 94.0628571429 51.8097000000
3923 2 122.9899976121 94.0628571429 52.7592000000
3924 1 124.0970904693 92.1453571429 51.8097000000
3925 2 119.6688243979 92.1453571429 48.6232000000
3926 1 120.7759172550 94.0628571429 49.5727000000
3927 2 122.9899976121 94.0628571429 48.6232000000
3928 1 124.0970904693 92.1453571429 49.5727000000
3929 2 119.6688243979 95.9803571429 52.7592000000
3930 1 120.7759172550 97.8978571429 51.8097000000
3931 2 122.9899976121 97.8978571429 52.7592000000
3932 1 124.0970904693 95.9803571429 51.8097000000
3933 2 119.6688243979 95.9803571429 48.6232000000
3934 1 120.7759172550 97.8978571429 49.5727000000
3935 2 122.9899976121 97.8978571429 48.6232000000
3936 2 126.3112761836 92.1453571429 52.7592000000
3937 1 127.4182636836 94.0628571429 51.8097000000
3938 2 129.6324493979 94.0628571429 52.7592000000
3939 1 130.7395422550 92.1453571429 51.8097000000
3940 2 126.3112761836 92.1453571429 48.6232000000
3941 1 127.4182636836 94.0628571429 49.5727000000
3942 2 129.6324493979 94.0628571429 48.6232000000
3943 1 130.7395422550 92.1453571429 49.5727000000
3944 2 126.3112761836 95.9803571429 52.7592000000
3945 1 127.4182636836 97.8978571429 51.8097000000
3946 2 129.6324493979 97.8978571429 52.7592000000
3947 1 130.7395422550 95.9803571429 51.8097000000
3948 2 126.3112761836 95.9803571429 48.6232000000
3949 1 127.4182636836 97.8978571429 49.5727000000
3950 2 129.6324493979 97.8978571429 48.6232000000
3951 1 130.7395422550 95.9803571429 49.5727000000
3952 2 0.1053571429 99.8153571429 52.7592000000
3953 1 1.2124500000 101.7328571429 51.8097000000
3954 2 3.4265303571 101.7328571429 52.7592000000
3955 1 4.5336232143 99.8153571429 51.8097000000
3956 2 0.1053571429 99.8153571429 48.6232000000
3957 1 1.2124500000 101.7328571429 49.5727000000
3958 2 3.4265303571 101.7328571429 48.6232000000
3959 2 0.1053571429 103.6503571429 52.7592000000
3960 1 1.2124500000 105.5678571429 51.8097000000
3961 2 3.4265303571 105.5678571429 52.7592000000
3962 1 4.5336232143 103.6503571429 51.8097000000
3963 2 0.1053571429 103.6503571429 48.6232000000
3964 1 1.2124500000 105.5678571429 49.5727000000
3965 2 3.4265303571 105.5678571429 48.6232000000
3966 1 4.5336232143 103.6503571429 49.5727000000
3967 2 6.7478089286 99.8153571429 52.7592000000
3968 1 7.8547964286 101.7328571429 51.8097000000
3969 2 10.0689821429 101.7328571429 52.7592000000
3970 1 11.1760750000 99.8153571429 51.8097000000
3971 2 6.7478089286 99.8153571429 48.6232000000
3972 1 7.8547964286 101.7328571429 49.5727000000
3973 2 10.0689821429 101.7328571429 48.6232000000
3974 2 6.7478089286 103.6503571429 52.7592000000
3975 1 7.8547964286 105.5678571429 51.8097000000
3976 2 10.0689821429 105.5678571429 52.7592000000
3977 1 11.1760750000 103.6503571429 51.8097000000
3978 2 6.7478089286 103.6503571429 48.6232000000
3979 1 7.8547964286 105.5678571429 49.5727000000
3980 2 10.0689821429 105.5678571429 48.6232000000
3981 1 11.1760750000 103.6503571429 49.5727000000
3982 2 13.3901868379 99.8153571429 52.7592000000
3983 1 14.4972796950 101.7328571429 51.8097000000
3984 2 16.7113600521 101.7328571429 52.7592000000
3985 1 17.8184529093 99.8153571429 51.8097000000
3986 2 13.3901868379 99.8153571429 48.6232000000
3987 1 14.4972796950 101.7328571429 49.5727000000
3988 2 16.7113600521 101.7328571429 48.6232000000
3989 1 17.8184529093 99.8153571429 49.5727000000
3990 2 13.3901868379 103.6503571429 52.7592000000
3991 2 16.7113600521 105.5678571429 52.7592000000
3992 1 17.8184529093 103.6503571429 51.8097000000
3993 2 13.3901868379 103.6503571429 48.6232000000
3994 1 14.4972796950 105.5678571429 49.5727000000
3995 2 16.7113600521 105.5678571429 48.6232000000
3996 1 17.8184529093 103.6503571429 49.5727000000
3997 2 20.0326386236 99.8153571429 52.7592000000
3998 1 21.1396261236 101.7328571429 51.8097000000
3999 2 23.3538118379 101.7328571429 52.7592000000
4000 1 24.4609046950 99.8153571429 51.8097000000
4001 2 20.0326386236 99.8153571429 48.6232000000
4002 1 21.1396261236 101.7328571429 49.5727000000
4003 2 23.3538118379 101.7328571429 48.6232000000
4004 1 24.4609046950 99.8153571429 49.5727000000
4005 2 20.0326386236 103.6503571429 52.7592000000
4006 1 21.1396261236 105.5678571429 51.8097000000
4007 2 23.3538118379 105.5678571429 52.7592000000
4008 1 24.4609046950 103.6503571429 51.8097000000
4009 2 20.0326386236 103.6503571429 48.6232000000
4010 2 23.3538118379 105.5678571429 48.6232000000
4011 1 24.4609046950 103.6503571429 49.5727000000
4012 2 26.6750165329 99.8153571429 52.7592000000
4013 1 27.7821093900 101.7328571429 51.8097000000
4014 2 29.9961897471 101.7328571429 52.7592000000
4015 1 31.1032826043 99.8153571429 51.8097000000
4016 2 26.6750165329 99.8153571429 48.6232000000
4017 1 27.7821093900 101.7328571429 49.5727000000
4018 2 29.9961897471 101.7328571429 48.6232000000
4019 1 31.1032826043 99.8153571429 49.5727000000
4020 2 26.6750165329 103.6503571429 52.7592000000
4021 1 27.7821093900 105.5678571429 51.8097000000
4022 2 29.9961897471 105.5678571429 52.7592000000
4023 1 31.1032826043 103.6503571429 51.8097000000
4024 2 26.6750165329 103.6503571429 48.6232000000
4025 1 27.7821093900 105.5678571429 49.5727000000
4026 2 29.9961897471 105.5678571429 48.6232000000
4027 1 31.1032826043 103.6503571429 49.5727000000
4028 2 33.3174683186 99.8153571429 52.7592000000
4029 1 34.4244558186 101.7328571429 51.8097000000
4030 2 36.6386415329 101.7328571429 52.7592000000
4031 1 37.7457343900 99.8153571429 51.8097000000
4032 2 33.3174683186 99.8153571429 48.6232000000
4033 1 34.4244558186 101.7328571429 49.5727000000
4034 2 36.6386415329 101.7328571429 48.6232000000
4035 1 37.7457343900 99.8153571429 49.5727000000
4036 2 33.3174683186 103.6503571429 52.7592000000
4037 1 34.4244558186 105.5678571429 51.8097000000
4038 2 36.6386415329 105.5678571429 52.7592000000
4039 2 33.3174683186 103.6503571429 48.6232000000
4040 1 34.4244558186 105.5678571429 49.5727000000
4041 2 36.6386415329 105.5678571429 48.6232000000
4042 1 37.7457343900 103.6503571429 49.5727000000
4043 2 39.9598462279 99.8153571429 52.7592000000
4044 1 41.0669390850 101.7328571429 51.8097000000
4045 2 43.2810194421 101.7328571429 52.7592000000
4046 1 44.3881122993 99.8153571429 51.8097000000
4047 2 39.9598462279 99.8153571429 48.6232000000
4048 1 41.0669390850 101.7328571429 49.5727000000
4049 2 43.2810194421 101.7328571429 48.6232000000
4050 1 44.3881122993 99.8153571429 49.5727000000
4051 2 39.9598462279 103.6503571429 52.7592000000
4052 1 41.0669390850 105.5678571429 51.8097000000
4053 2 43.2810194421 105.5678571429 52.7592000000
4054 1 44.3881122993 103.6503571429 51.8097000000
4055 2 39.9598462279 103.6503571429 48.6232000000
4056 1 41.0669390850 105.5678571429 49.5727000000
4057 2 43.2810194421 105.5678571429 48.6232000000
4058 1 44.3881122993 103.6503571429 49.5727000000
4059 2 46.6022980136 99.8153571429 52.7592000000
4060 1 47.7092855136 101.7328571429 51.8097000000
4061 2 49.9234712279 101.7328571429 52.7592000000
4062 2 46.6022980136 99.8153571429 48.6232000000
4063 1 47.7092855136 101.7328571429 49.5727000000
4064 2 49.9234712279 101.7328571429 48.6232000000
4065 1 51.0305640850 99.8153571429 49.5727000000
4066 2 46.6022980136 103.6503571429 52.7592000000
4067 1 47.7092855136 105.5678571429 51.8097000000
4068 2 49.9234712279 105.5678571429 52.7592000000
4069 1 51.0305640850 103.6503571429 51.8097000000
4070 2 46.6022980136 103.6503571429 48.6232000000
4071 1 47.7092855136 105.5678571429 49.5727000000
4072 2 49.9234712279 105.5678571429 48.6232000000
4073 1 51.0305640850 103.6503571429 49.5727000000
4074 2 53.2446759229 99.8153571429 52.7592000000
4075 1 54.3517687800 101.7328571429 51.8097000000
4076 2 56.5658491371 101.7328571429 52.7592000000
4077 1 57.6729419943 99.8153571429 51.8097000000
4078 2 53.2446759229 99.8153571429 48.6232000000
4079 1 54.3517687800 101.7328571429 49.5727000000
4080 2 56.5658491371 101.7328571429 48.6232000000
4081 2 53.2446759229 103.6503571429 52.7592000000
4082 2 56.5658491371 105.5678571429 52.7592000000
4083 1 57.6729419943 103.6503571429 51.8097000000
4084 2 53.2446759229 103.6503571429 48.6232000000
4085 1 54.3517687800 105.5678571429 49.5727000000
4086 2 56.5658491371 105.5678571429 48.6232000000
4087 1 57.6729419943 103.6503571429 49.5727000000
4088 2 59.8871277086 99.8153571429 52.7592000000
4089 1 60.9941152086 101.7328571429 51.8097000000
4090 2 63.2083009229 101.7328571429 52.7592000000
4091 1 64.3153937800 99.8153571429 51.8097000000
4092 2 59.8871277086 99.8153571429 48.6232000000
4093 1 60.9941152086 101.7328571429 49.5727000000
4094 2 63.2083009229 101.7328571429 48.6232000000
4095 2 59.8871277086 103.6503571429 52.7592000000
4096 1 60.9941152086 105.5678571429 51.8097000000
4097 2 63.2083009229 105.5678571429 52.7592000000
4098 1 64.3153937800 103.6503571429 51.8097000000
4099 2 59.8871277086 103.6503571429 48.6232000000
4100 2 63.2083009229 105.5678571429 48.6232000000
4101 1 64.3153937800 103.6503571429 49.5727000000
4102 2 66.5295056179 99.8153571429 52.7592000000
4103 1 67.6365984750 101.7328571429 51.8097000000
4104 2 69.8506788321 101.7328571429 52.7592000000
4105 2 66.5295056179 99.8153571429 48.6232000000
4106 1 67.6365984750 101.7328571429 49.5727000000
4107 2 69.8506788321 101.7328571429 48.6232000000
4108 1 70.9577716893 99.8153571429 49.5727000000
4109 2 66.5295056179 103.6503571429 52.7592000000
4110 1 67.6365984750 105.5678571429 51.8097000000
4111 2 69.8506788321 105.5678571429 52.7592000000
4112 1 70.9577716893 103.6503571429 51.8097000000
4113 2 66.5295056179 103.6503571429 48.6232000000
4114 1 67.6365984750 105.5678571429 49.5727000000
4115 2 69.8506788321 105.5678571429 48.6232000000
4116 1 70.9577716893 103.6503571429 49.5727000000
4117 2 73.1719574036 99.8153571429 52.7592000000
4118 1 74.2789449036 101.7328571429 51.8097000000
4119 2 76.4931306179 101.7328571429 52.7592000000
4120 2 73.1719574036 99.8153571429 48.6232000000
4121 1 74.2789449036 101.7328571429 49.5727000000
4122 2 76.4931306179 101.7328571429 48.6232000000
4123 1 77.6002234750 99.8153571429 49.5727000000
4124 2 73.1719574036 103.6503571429 52.7592000000
4125 1 74.2789449036 105.5678571429 51.8097000000
4126 2 76.4931306179 105.5678571429 52.7592000000
4127 1 77.6002234750 103.6503571429 51.8097000000
4128 2 73.1719574036 103.6503571429 48.6232000000
4129 1 74.2789449036 105.5678571429 49.5727000000
4130 2 76.4931306179 105.5678571429 48.6232000000
4131 1 77.6002234750 103.6503571429 49.5727000000
4132 2 79.8143353129 99.8153571429 52.7592000000
4133 1 80.9214281700 101.7328571429 51.8097000000
4134 2 83.1355085271 101.7328571429 52.7592000000
4135 1 84.2426013843 99.8153571429 51.8097000000
4136 2 79.8143353129 99.8153571429 48.6232000000
4137 1 80.9214281700 101.7328571429 49.5727000000
4138 2 83.1355085271 101.7328571429 48.6232000000
4139 1 84.2426013843 99.8153571429 49.5727000000
4140 2 79.8143353129 103.6503571429 52.7592000000
4141 1 80.9214281700 105.5678571429 51.8097000000
4142 2 83.1355085271 105.5678571429 52.7592000000
4143 1 84.2426013843 103.6503571429 51.8097000000
4144 2 79.8143353129 103.6503571429 48.6232000000
4145 1 80.9214281700 105.5678571429 49.5727000000
4146 2 83.1355085271 105.5678571429 48.6232000000
4147 1 84.2426013843 103.6503571429 49.5727000000
4148 2 86.4567870986 99.8153571429 52.7592000000
4149 1 87.5637745986 101.7328571429 51.8097000000
4150 2 89.7779603129 101.7328571429 52.7592000000
4151 1 90.8850531700 99.8153571429 51.8097000000
4152 2 86.4567870986 99.8153571429 48.6232000000
4153 1 87.5637745986 101.7328571429 49.5727000000
4154 2 89.7779603129 101.7328571429 48.6232000000
4155 1 90.8850531700 99.8153571429 49.5727000000
4156 2 86.4567870986 103.6503571429 52.7592000000
4157 1 87.5637745986 105.5678571429 51.8097000000
4158 2 89.7779603129 105.5678571429 52.7592000000
4159 1 90.8850531700 103.6503571429 51.8097000000
4160 2 86.4567870986 103.6503571429 48.6232000000
4161 1 87.5637745986 105.5678571429 49.5727000000
4162 2 89.7779603129 105.5678571429 48.6232000000
4163 2 93.0991650079 99.8153571429 52.7592000000
4164 1 94.2062578650 101.7328571429 51.8097000000
4165 2 96.4203382221 101.7328571429 52.7592000000
4166 1 97.5274310793 99.8153571429 51.8097000000
4167 2 93.0991650079 99.8153571429 48.6232000000
4168 1 94.2062578650 101.7328571429 49.5727000000
4169 2 96.4203382221 101.7328571429 48.6232000000
4170 1 97.5274310793 99.8153571429 49.5727000000
4171 2 93.0991650079 103.6503571429 52.7592000000
4172 1 94.2062578650 105.5678571429 51.8097000000
4173 2 96.4203382221 105.5678571429 52.7592000000
4174 1 97.5274310793 103.6503571429 51.8097000000
4175 2 93.0991650079 103.6503571429 48.6232000000
4176 1 94.2062578650 105.5678571429 49.5727000000
4177 2 96.4203382221 105.5678571429 48.6232000000
4178 1 97.5274310793 103.6503571429 49.5727000000
4179 2 99.7416167936 99.8153571429 52.7592000000
4180 1 100.8486042936 101.7328571429 51.8097000000
4181 2 103.0627900079 101.7328571429 52.7592000000
4182 1 104.1698828650 99.8153571429 51.8097000000
4183 2 99.7416167936 99.8153571429 48.6232000000
4184 1 100.8486042936 101.7328571429 49.5727000000
4185 2 103.0627900079 101.7328571429 48.6232000000
4186 1 104.1698828650 99.8153571429 49.5727000000
4187 2 99.7416167936 103.6503571429 52.7592000000
4188 1 100.8486042936 105.5678571429 51.8097000000
4189 2 103.0627900079 105.5678571429 52.7592000000
4190 1 104.1698828650 103.6503571429 51.8097000000
4191 2 99.7416167936 103.6503571429 48.6232000000
4192 1 100.8486042936 105.5678571429 49.5727000000
4193 2 103.0627900079 105.5678571429 48.6232000000
4194 2 106.3839947029 99.8153571429 52.7592000000
4195 1 107.4910875600 101.7328571429 51.8097000000
4196 2 109.7051679171 101.7328571429 52.7592000000
4197 1 110.8122607743 99.8153571429 51.8097000000
4198 2 106.3839947029 99.8153571429 48.6232000000
4199 1 107.4910875600 101.7328571429 49.5727000000
4200 2 109.7051679171 101.7328571429 48.6232000000
4201 1 110.8122607743 99.8153571429 49.5727000000
4202 2 106.3839947029 103.6503571429 52.7592000000
4203 1 107.4910875600 105.5678571429 51.8097000000
4204 2 109.7051679171 105.5678571429 52.7592000000
4205 1 110.8122607743 103.6503571429 51.8097000000
4206 2 106.3839947029 103.6503571429 48.6232000000
4207 1 107.4910875600 105.5678571429 49.5727000000
4208 2 109.7051679171 105.5678571429 48.6232000000
4209 1 110.8122607743 103.6503571429 49.5727000000
4210 2 113.0264464886 99.8153571429 52.7592000000
4211 2 116.3476197029 101.7328571429 52.7592000000
4212 1 117.4547125600 99.8153571429 51.8097000000
4213 2 113.0264464886 99.8153571429 48.6232000000
4214 1 114.1334339886 101.7328571429 49.5727000000
4215 2 116.3476197029 101.7328571429 48.6232000000
4216 1 117.4547125600 99.8153571429 49.5727000000
4217 2 113.0264464886 103.6503571429 52.7592000000
4218 1 114.1334339886 105.5678571429 51.8097000000
4219 2 116.3476197029 105.5678571429 52.7592000000
4220 1 117.4547125600 103.6503571429 51.8097000000
4221 2 113.0264464886 103.6503571429 48.6232000000
4222 1 114.1334339886 105.5678571429 49.5727000000
4223 2 116.3476197029 105.5678571429 48.6232000000
4224 1 117.4547125600 103.6503571429 49.5727000000
4225 2 119.6688243979 99.8153571429 52.7592000000
4226 1 120.7759172550 101.7328571429 51.8097000000
4227 2 122.9899976121 101.7328571429 52.7592000000
4228 1 124.0970904693 99.8153571429 51.8097000000
4229 2 119.6688243979 99.8153571429 48.6232000000
4230 1 120.7759172550 101.7328571429 49.5727000000
4231 2 122.9899976121 101.7328571429 48.6232000000
4232 1 124.0970904693 99.8153571429 49.5727000000
4233 2 119.6688243979 103.6503571429 52.7592000000
4234 1 120.7759172550 105.5678571429 51.8097000000
4235 2 122.9899976121 105.5678571429 52.7592000000
4236 1 124.0970904693 103.6503571429 51.8097000000
4237 2 119.6688243979 103.6503571429 48.6232000000
4238 1 120.7759172550 105.5678571429 49.5727000000
4239 2 122.9899976121 105.5678571429 48.6232000000
4240 1 124.0970904693 103.6503571429 49.5727000000
4241 2 126.3112761836 99.8153571429 52.7592000000
4242 1 127.4182636836 101.7328571429 51.8097000000
4243 2 129.6324493979 101.7328571429 52.7592000000
4244 1 130.7395422550 99.8153571429 51.8097000000
4245 2 126.3112761836 99.8153571429 48.6232000000
4246 2 129.6324493979 101.7328571429 48.6232000000
4247 1 130.7395422550 99.8153571429 49.5727000000
4248 2 126.3112761836 103.6503571429 52.7592000000
4249 1 127.4182636836 105.5678571429 51.8097000000
4250 2 129.6324493979 105.5678571429 52.7592000000
4251 1 130.7395422550 103.6503571429 51.8097000000
4252 2 126.3112761836 103.6503571429 48.6232000000
4253 1 127.4182636836 105.5678571429 49.5727000000
4254 2 129.6324493979 105.5678571429 48.6232000000
4255 1 130.7395422550 103.6503571429 49.5727000000
4256 2 0.1053571429 107.4853571429 52.7592000000
4257 1 1.2124500000 109.4028571429 51.8097000000
4258 2 3.4265303571 109.4028571429 52.7592000000
4259 2 0.1053571429 107.4853571429 48.6232000000
4260 1 1.2124500000 109.4028571429 49.5727000000
4261 2 3.4265303571 109.4028571429 48.6232000000
4262 1 4.5336232143 107.4853571429 49.5727000000
4263 2 0.1053571429 111.3203571429 52.7592000000
4264 1 1.2124500000 113.2378571429 51.8097000000
4265 2 3.4265303571 113.2378571429 52.7592000000
4266 1 4.5336232143 111.3203571429 51.8097000000
4267 2 0.1053571429 111.3203571429 48.6232000000
4268 1 1.2124500000 113.2378571429 49.5727000000
4269 2 3.4265303571 113.2378571429 48.6232000000
4270 1 4.5336232143 111.3203571429 49.5727000000
4271 2 6.7478089286 107.4853571429 52.7592000000
4272 1 7.8547964286 109.4028571429 51.8097000000
4273 2 10.0689821429 109.4028571429 52.7592000000
4274 1 11.1760750000 107.4853571429 51.8097000000
4275 2 6.7478089286 107.4853571429 48.6232000000
4276 1 7.8547964286 109.4028571429 49.5727000000
4277 2 10.0689821429 109.4028571429 48.6232000000
4278 1 11.1760750000 107.4853571429 49.5727000000
4279 2 6.7478089286 111.3203571429 52.7592000000
4280 1 7.8547964286 113.2378571429 51.8097000000
4281 2 10.0689821429 113.2378571429 52.7592000000
4282 1 11.1760750000 111.3203571429 51.8097000000
4283 2 6.7478089286 111.3203571429 48.6232000000
4284 1 7.8547964286 113.2378571429 49.5727000000
4285 2 10.0689821429 113.2378571429 48.6232000000
4286 1 11.1760750000 111.3203571429 49.5727000000
4287 2 13.3901868379 107.4853571429 52.7592000000
4288 1 14.4972796950 109.4028571429 51.8097000000
4289 2 16.7113600521 109.4028571429 52.7592000000
4290 1 17.8184529093 107.4853571429 51.8097000000
4291 2 13.3901868379 107.4853571429 48.6232000000
4292 1 14.4972796950 109.4028571429 49.5727000000
4293 2 16.7113600521 109.4028571429 48.6232000000
4294 1 17.8184529093 107.4853571429 49.5727000000
4295 2 13.3901868379 111.3203571429 52.7592000000
4296 1 14.4972796950 113.2378571429 51.8097000000
4297 2 16.7113600521 113.2378571429 52.7592000000
4298 1 17.8184529093 111.3203571429 51.8097000000
4299 2 13.3901868379 111.3203571429 48.6232000000
4300 1 14.4972796950 113.2378571429 49.5727000000
4301 2 16.7113600521 113.2378571429 48.6232000000
4302 1 17.8184529093 111.3203571429 49.5727000000
4303 2 20.0326386236 107.4853571429 52.7592000000
4304 1 21.1396261236 109.4028571429 51.8097000000
4305 2 23.3538118379 109.4028571429 52.7592000000
4306 1 24.4609046950 107.4853571429 51.8097000000
4307 2 20.0326386236 107.4853571429 48.6232000000
4308 1 21.1396261236 109.4028571429 49.5727000000
4309 2 23.3538118379 109.4028571429 48.6232000000
4310 1 24.4609046950 107.4853571429 49.5727000000
4311 2 20.0326386236 111.3203571429 52.7592000000
4312 1 21.1396261236 113.2378571429 51.8097000000
4313 2 23.3538118379 113.2378571429 52.7592000000
4314 1 24.4609046950 111.3203571429 51.8097000000
4315 2 20.0326386236 111.3203571429 48.6232000000
4316 1 21.1396261236 113.2378571429 49.5727000000
4317 2 23.3538118379 113.2378571429 48.6232000000
4318 1 24.4609046950 111.3203571429 49.5727000000
4319 2 26.6750165329 107.4853571429 52.7592000000
4320 1 27.7821093900 109.4028571429 51.8097000000
4321 2 29.9961897471 109.4028571429 52.7592000000
4322 1 31.1032826043 107.4853571429 51.8097000000
4323 2 26.6750165329 107.4853571429 48.6232000000
4324 2 29.9961897471 109.4028571429 48.6232000000
4325 1 31.1032826043 107.4853571429 49.5727000000
4326 2 26.6750165329 111.3203571429 52.7592000000
4327 1 27.7821093900 113.2378571429 51.8097000000
4328 2 29.9961897471 113.2378571429 52.7592000000
4329 1 31.1032826043 111.3203571429 51.8097000000
4330 2 26.6750165329 111.3203571429 48.6232000000
4331 1 27.7821093900 113.2378571429 49.5727000000
4332 2 29.9961897471 113.2378571429 48.6232000000
4333 1 31.1032826043 111.3203571429 49.5727000000
4334 2 33.3174683186 107.4853571429 52.7592000000
4335 1 34.4244558186 109.4028571429 51.8097000000
4336 2 36.6386415329 109.4028571429 52.7592000000
4337 1 37.7457343900 107.4853571429 51.8097000000
4338 2 33.3174683186 107.4853571429 48.6232000000
4339 1 34.4244558186 109.4028571429 49.5727000000
4340 2 36.6386415329 109.4028571429 48.6232000000
4341 1 37.7457343900 107.4853571429 49.5727000000
4342 2 33.3174683186 111.3203571429 52.7592000000
4343 2 36.6386415329 113.2378571429 52.7592000000
4344 1 37.7457343900 111.3203571429 51.8097000000
4345 2 33.3174683186 111.3203571429 48.6232000000
4346 1 34.4244558186 113.2378571429 49.5727000000
4347 2 36.6386415329 113.2378571429 48.6232000000
4348 1 37.7457343900 111.3203571429 49.5727000000
4349 2 39.9598462279 107.4853571429 52.7592000000
4350 2 43.2810194421 109.4028571429 52.7592000000
4351 1 44.3881122993 107.4853571429 51.8097000000
4352 2 39.9598462279 107.4853571429 48.6232000000
4353 1 41.0669390850 109.4028571429 49.5727000000
4354 2 43.2810194421 109.4028571429 48.6232000000
4355 1 44.3881122993 107.4853571429 49.5727000000
4356 2 39.9598462279 111.3203571429 52.7592000000
4357 1 41.0669390850 113.2378571429 51.8097000000
4358 2 43.2810194421 113.2378571429 52.7592000000
4359 1 44.3881122993 111.3203571429 51.8097000000
4360 2 39.9598462279 111.3203571429 48.6232000000
4361 1 41.0669390850 113.2378571429 49.5727000000
4362 2 43.2810194421 113.2378571429 48.6232000000
4363 1 44.3881122993 111.3203571429 49.5727000000
4364 2 46.6022980136 107.4853571429 52.7592000000
4365 1 47.7092855136 109.4028571429 51.8097000000
4366 2 49.9234712279 109.4028571429 52.7592000000
4367 1 51.0305640850 107.4853571429 51.8097000000
4368 2 46.6022980136 107.4853571429 48.6232000000
4369 1 47.7092855136 109.4028571429 49.5727000000
4370 2 49.9234712279 109.4028571429 48.6232000000
4371 1 51.0305640850 107.4853571429 49.5727000000
4372 2 46.6022980136 111.3203571429 52.7592000000
4373 1 47.7092855136 113.2378571429 51.8097000000
4374 2 49.9234712279 113.2378571429 52.7592000000
4375 1 51.0305640850 111.3203571429 51.8097000000
4376 2 46.6022980136 111.3203571429 48.6232000000
4377 2 49.9234712279 113.2378571429 48.6232000000
4378 1 51.0305640850 111.3203571429 49.5727000000
4379 2 53.2446759229 107.4853571429 52.7592000000
4380 1 54.3517687800 109.4028571429 51.8097000000
4381 2 56.5658491371 109.4028571429 52.7592000000
4382 1 57.6729419943 107.4853571429 51.8097000000
4383 2 53.2446759229 107.4853571429 48.6232000000
4384 1 54.3517687800 109.4028571429 49.5727000000
4385 2 56.5658491371 109.4028571429 48.6232000000
4386 1 57.6729419943 107.4853571429 49.5727000000
4387 2 53.2446759229 111.3203571429 52.7592000000
4388 1 54.3517687800 113.2378571429 51.8097000000
4389 2 56.5658491371 113.2378571429 52.7592000000
4390 1 57.6729419943 111.3203571429 51.8097000000
4391 2 53.2446759229 111.3203571429 48.6232000000
4392 1 54.3517687800 113.2378571429 49.5727000000
4393 2 56.5658491371 113.2378571429 48.6232000000
4394 2 59.8871277086 107.4853571429 52.7592000000
4395 1 60.9941152086 109.4028571429 51.8097000000
4396 2 63.2083009229 109.4028571429 52.7592000000
4397 1 64.3153937800 107.4853571429 51.8097000000
4398 2 59.8871277086 107.4853571429 48.6232000000
4399 1 60.9941152086 109.4028571429 49.5727000000
4400 2 63.2083009229 109.4028571429 48.6232000000
4401 1 64.3153937800 107.4853571429 49.5727000000
4402 2 59.8871277086 111.3203571429 52.7592000000
4403 1 60.9941152086 113.2378571429 51.8097000000
4404 2 63.2083009229 113.2378571429 52.7592000000
4405 2 59.8871277086 111.3203571429 48.6232000000
4406 1 60.9941152086 113.2378571429 49.5727000000
4407 2 63.2083009229 113.2378571429 48.6232000000
4408 1 64.3153937800 111.3203571429 49.5727000000
4409 2 66.5295056179 107.4853571429 52.7592000000
4410 1 67.6365984750 109.4028571429 51.8097000000
4411 2 69.8506788321 109.4028571429 52.7592000000
4412 1 70.9577716893 107.4853571429 51.8097000000
4413 2 66.5295056179 107.4853571429 48.6232000000
4414 1 67.6365984750 109.4028571429 49.5727000000
4415 2 69.8506788321 109.4028571429 48.6232000000
4416 1 70.9577716893 107.4853571429 49.5727000000
4417 2 66.5295056179 111.3203571429 52.7592000000
4418 1 67.6365984750 113.2378571429 51.8097000000
4419 2 69.8506788321 113.2378571429 52.7592000000
4420 1 70.9577716893 111.3203571429 51.8097000000
4421 2 66.5295056179 111.3203571429 48.6232000000
4422 1 67.6365984750 113.2378571429 49.5727000000
4423 2 69.8506788321 113.2378571429 48.6232000000
4424 1 70.9577716893 111.3203571429 49.5727000000
4425 2 73.1719574036 107.4853571429 52.7592000000
4426 1 74.2789449036 109.4028571429 51.8097000000
4427 2 76.4931306179 109.4028571429 52.7592000000
4428 2 73.1719574036 107.4853571429 48.6232000000
4429 1 74.2789449036 109.4028571429 49.5727000000
4430 2 76.4931306179 109.4028571429 48.6232000000
4431 1 77.6002234750 107.4853571429 49.5727000000
4432 2 73.1719574036 111.3203571429 52.7592000000
4433 1 74.2789449036 113.2378571429 51.8097000000
4434 2 76.4931306179 113.2378571429 52.7592000000
4435 1 77.6002234750 111.3203571429 51.8097000000
4436 2 73.1719574036 111.3203571429 48.6232000000
4437 2 76.4931306179 113.2378571429 48.6232000000
4438 1 77.6002234750 111.3203571429 49.5727000000
4439 2 79.8143353129 107.4853571429 52.7592000000
4440 1 80.9214281700 109.4028571429 51.8097000000
4441 2 83.1355085271 109.4028571429 52.7592000000
4442 1 84.2426013843 107.4853571429 51.8097000000
4443 2 79.8143353129 107.4853571429 48.6232000000
4444 1 80.9214281700 109.4028571429 49.5727000000
4445 2 83.1355085271 109.4028571429 48.6232000000
4446 2 79.8143353129 111.3203571429 52.7592000000
4447 1 80.9214281700 113.2378571429 51.8097000000
4448 2 83.1355085271 113.2378571429 52.7592000000
4449 1 84.2426013843 111.3203571429 51.8097000000
4450 2 79.8143353129 111.3203571429 48.6232000000
4451 1 80.9214281700 113.2378571429 49.5727000000
4452 2 83.1355085271 113.2378571429 48.6232000000
4453 1 84.2426013843 111.3203571429 49.5727000000
4454 2 86.4567870986 107.4853571429 52.7592000000
4455 1 87.5637745986 109.4028571429 51.8097000000
4456 2 89.7779603129 109.4028571429 52.7592000000
4457 1 90.8850531700 107.4853571429 51.8097000000
4458 2 86.4567870986 107.4853571429 48.6232000000
4459 1 87.5637745986 109.4028571429 49.5727000000
4460 2 89.7779603129 109.4028571429 48.6232000000
4461 1 90.8850531700 107.4853571429 49.5727000000
4462 2 86.4567870986 111.3203571429 52.7592000000
4463 1 87.5637745986 113.2378571429 51.8097000000
4464 2 89.7779603129 113.2378571429 52.7592000000
4465 1 90.8850531700 111.3203571429 51.8097000000
4466 2 86.4567870986 111.3203571429 48.6232000000
4467 1 87.5637745986 113.2378571429 49.5727000000
4468 2 89.7779603129 113.2378571429 48.6232000000
4469 1 90.8850531700 111.3203571429 49.5727000000
4470 2 93.0991650079 107.4853571429 52.7592000000
4471 2 96.4203382221 109.4028571429 52.7592000000
4472 1 97.5274310793 107.4853571429 51.8097000000
4473 2 93.0991650079 107.4853571429 48.6232000000
4474 1 94.2062578650 109.4028571429 49.5727000000
4475 2 96.4203382221 109.4028571429 48.6232000000
4476 1 97.5274310793 107.4853571429 49.5727000000
4477 2 93.0991650079 111.3203571429 52.7592000000
4478 1 94.2062578650 113.2378571429 51.8097000000
4479 2 96.4203382221 113.2378571429 52.7592000000
4480 1 97.5274310793 111.3203571429 51.8097000000
4481 2 93.0991650079 111.3203571429 48.6232000000
4482 1 94.2062578650 113.2378571429 49.5727000000
4483 2 96.4203382221 113.2378571429 48.6232000000
4484 1 97.5274310793 111.3203571429 49.5727000000
4485 2 99.7416167936 107.4853571429 52.7592000000
4486 1 100.8486042936 109.4028571429 51.8097000000
4487 2 103.0627900079 109.4028571429 52.7592000000
4488 1 104.1698828650 107.4853571429 51.8097000000
4489 2 99.7416167936 107.4853571429 48.6232000000
4490 1 100.8486042936 109.4028571429 49.5727000000
4491 2 103.0627900079 109.4028571429 48.6232000000
4492 1 104.1698828650 107.4853571429 49.5727000000
4493 2 99.7416167936 111.3203571429 52.7592000000
4494 1 100.8486042936 113.2378571429 51.8097000000
4495 2 103.0627900079 113.2378571429 52.7592000000
4496 1 104.1698828650 111.3203571429 51.8097000000
4497 2 99.7416167936 111.3203571429 48.6232000000
4498 1 100.8486042936 113.2378571429 49.5727000000
4499 2 103.0627900079 113.2378571429 48.6232000000
4500 1 104.1698828650 111.3203571429 49.5727000000
4501 2 106.3839947029 107.4853571429 52.7592000000
4502 1 107.4910875600 109.4028571429 51.8097000000
4503 2 109.7051679171 109.4028571429 52.7592000000
4504 1 110.8122607743 107.4853571429 51.8097000000
4505 2 106.3839947029 107.4853571429 48.6232000000
4506 1 107.4910875600 109.4028571429 49.5727000000
4507 2 109.7051679171 109.4028571429 48.6232000000
4508 2 106.3839947029 111.3203571429 52.7592000000
4509 2 109.7051679171 113.2378571429 52.7592000000
4510 1 110.8122607743 111.3203571429 51.8097000000
4511 2 106.3839947029 111.3203571429 48.6232000000
4512 1 107.4910875600 113.2378571429 49.5727000000
4513 2 109.7051679171 113.2378571429 48.6232000000
4514 1 110.8122607743 111.3203571429 49.5727000000
4515 2 113.0264464886 107.4853571429 52.7592000000
4516 1 114.1334339886 109.4028571429 51.8097000000
4517 2 116.3476197029 109.4028571429 52.7592000000
4518 2 113.0264464886 107.4853571429 48.6232000000
4519 1 114.1334339886 109.4028571429 49.5727000000
4520 2 116.3476197029 109.4028571429 48.6232000000
4521 1 117.4547125600 107.4853571429 49.5727000000
4522 2 113.0264464886 111.3203571429 52.7592000000
4523 1 114.1334339886 113.2378571429 51.8097000000
4524 2 116.3476197029 113.2378571429 52.7592000000
4525 1 117.4547125600 111.3203571429 51.8097000000
4526 2 113.0264464886 111.3203571429 48.6232000000
4527 1 114.1334339886 113.2378571429 49.5727000000
4528 2 116.3476197029 113.2378571429 48.6232000000
4529 1 117.4547125600 111.3203571429 49.5727000000
4530 2 119.6688243979 107.4853571429 52.7592000000
4531 1 120.7759172550 109.4028571429 51.8097000000
4532 2 122.9899976121 109.4028571429 52.7592000000
4533 1 124.0970904693 107.4853571429 51.8097000000
4534 2 119.6688243979 107.4853571429 48.6232000000
4535 1 120.7759172550 109.4028571429 49.5727000000
4536 2 122.9899976121 109.4028571429 48.6232000000
4537 2 119.6688243979 111.3203571429 52.7592000000
4538 2 122.9899976121 113.2378571429 52.7592000000
4539 1 124.0970904693 111.3203571429 51.8097000000
4540 2 119.6688243979 111.3203571429 48.6232000000
4541 1 120.7759172550 113.2378571429 49.5727000000
4542 2 122.9899976121 113.2378571429 48.6232000000
4543 1 124.0970904693 111.3203571429 49.5727000000
4544 2 126.3112761836 107.4853571429 52.7592000000
4545 1 127.4182636836 109.4028571429 51.8097000000
4546 2 129.6324493979 109.4028571429 52.7592000000
4547 1 130.7395422550 107.4853571429 51.8097000000
4548 2 126.3112761836 107.4853571429 48.6232000000
4549 1 127.4182636836 109.4028571429 49.5727000000
4550 2 129.6324493979 109.4028571429 48.6232000000
4551 1 130.7395422550 107.4853571429 49.5727000000
4552 2 126.3112761836 111.3203571429 52.7592000000
4553 1 127.4182636836 113.2378571429 51.8097000000
4554 2 129.6324493979 113.2378571429 52.7592000000
4555 2 126.3112761836 111.3203571429 48.6232000000
4556 1 127.4182636836 113.2378571429 49.5727000000
4557 2 129.6324493979 113.2378571429 48.6232000000
4558 1 130.7395422550 111.3203571429 49.5727000000
4559 2 0.1053571429 115.1553571429 52.7592000000
4560 1 1.2124500000 117.0728571429 51.8097000000
4561 2 3.4265303571 117.0728571429 52.7592000000
4562 1 4.5336232143 115.1553571429 51.8097000000
4563 2 0.1053571429 115.1553571429 48.6232000000
4564 1 1.2124500000 117.0728571429 49.5727000000
4565 2 3.4265303571 117.0728571429 48.6232000000
4566 1 4.5336232143 115.1553571429 49.5727000000
4567 2 0.1053571429 118.9903571429 52.7592000000
4568 2 3.4265303571 120.9078571429 52.7592000000
4569 1 4.5336232143 118.9903571429 51.8097000000
4570 2 0.1053571429 118.9903571429 48.6232000000
4571 1 1.2124500000 120.9078571429 49.5727000000
4572 2 3.4265303571 120.9078571429 48.6232000000
4573 1 4.5336232143 118.9903571429 49.5727000000
4574 2 6.7478089286 115.1553571429 52.7592000000
4575 1 7.8547964286 117.0728571429 51.8097000000
4576 2 10.0689821429 117.0728571429 52.7592000000
4577 1 11.1760750000 115.1553571429 51.8097000000
4578 2 6.7478089286 115.1553571429 48.6232000000
4579 1 7.8547964286 117.0728571429 49.5727000000
4580 2 10.0689821429 117.0728571429 48.6232000000
4581 2 6.7478089286 118.9903571429 52.7592000000
4582 1 7.8547964286 120.9078571429 51.8097000000
4583 2 10.0689821429 120.9078571429 52.7592000000
4584 1 11.1760750000 118.9903571429 51.8097000000
4585 2 6.7478089286 118.9903571429 48.6232000000
4586 1 7.8547964286 120.9078571429 49.5727000000
4587 2 10.0689821429 120.9078571429 48.6232000000
4588 1 11.1760750000 118.9903571429 49.5727000000
4589 2 13.3901868379 115.1553571429 52.7592000000
4590 1 14.4972796950 117.0728571429 51.8097000000
4591 2 16.7113600521 117.0728571429 52.7592000000
4592 1 17.8184529093 115.1553571429 51.8097000000
4593 2 13.3901868379 115.1553571429 48.6232000000
4594 1 14.4972796950 117.0728571429 49.5727000000
4595 2 16.7113600521 117.0728571429 48.6232000000
4596 2 13.3901868379 118.9903571429 52.7592000000
4597 2 16.7113600521 120.9078571429 52.7592000000
4598 1 17.8184529093 118.9903571429 51.8097000000
4599 2 13.3901868379 118.9903571429 48.6232000000
4600 1 14.4972796950 120.9078571429 49.5727000000
4601 2 16.7113600521 120.9078571429 48.6232000000
4602 1 17.8184529093 118.9903571429 49.5727000000
4603 2 20.0326386236 115.1553571429 52.7592000000
4604 1 21.1396261236 117.0728571429 51.8097000000
4605 2 23.3538118379 117.0728571429 52.7592000000
4606 1 24.4609046950 115.1553571429 51.8097000000
4607 2 20.0326386236 115.1553571429 48.6232000000
4608 1 21.1396261236 117.0728571429 49.5727000000
4609 2 23.3538118379 117.0728571429 48.6232000000
4610 1 24.4609046950 115.1553571429 49.5727000000
4611 2 20.0326386236 118.9903571429 52.7592000000
4612 1 21.1396261236 120.9078571429 51.8097000000
4613 2 23.3538118379 120.9078571429 52.7592000000
4614 2 20.0326386236 118.9903571429 48.6232000000
4615 1 21.1396261236 120.9078571429 49.5727000000
4616 2 23.3538118379 120.9078571429 48.6232000000
4617 1 24.4609046950 118.9903571429 49.5727000000
4618 2 26.6750165329 115.1553571429 52.7592000000
4619 1 27.7821093900 117.0728571429 51.8097000000
4620 2 29.9961897471 117.0728571429 52.7592000000
4621 1 31.1032826043 115.1553571429 51.8097000000
4622 2 26.6750165329 115.1553571429 48.6232000000
4623 1 27.7821093900 117.0728571429 49.5727000000
4624 2 29.9961897471 117.0728571429 48.6232000000
4625 1 31.1032826043 115.1553571429 49.5727000000
4626 2 26.6750165329 118.9903571429 52.7592000000
4627 1 27.7821093900 120.9078571429 51.8097000000
4628 2 29.9961897471 120.9078571429 52.7592000000
4629 1 31.1032826043 118.9903571429 51.8097000000
4630 2 26.6750165329 118.9903571429 48.6232000000
4631 1 27.7821093900 120.9078571429 49.5727000000
4632 2 29.9961897471 120.9078571429 48.6232000000
4633 1 31.1032826043 118.9903571429 49.5727000000
4634 2 33.3174683186 115.1553571429 52.7592000000
4635 1 34.4244558186 117.0728571429 51.8097000000
4636 2 36.6386415329 117.0728571429 52.7592000000
4637 1 37.7457343900 115.1553571429 51.8097000000
4638 2 33.3174683186 115.1553571429 48.6232000000
4639 1 34.4244558186 117.0728571429 49.5727000000
4640 2 36.6386415329 117.0728571429 48.6232000000
4641 1 37.7457343900 115.1553571429 49.5727000000
4642 2 33.3174683186 118.9903571429 52.7592000000
4643 1 34.4244558186 120.9078571429 51.8097000000
4644 2 36.6386415329 120.9078571429 52.7592000000
4645 1 37.7457343900 118.9903571429 51.8097000000
4646 2 33.3174683186 118.9903571429 48.6232000000
4647 1 34.4244558186 120.9078571429 49.5727000000
4648 2 36.6386415329 120.9078571429 48.6232000000
4649 1 37.7457343900 118.9903571429 49.5727000000
4650 2 39.9598462279 115.1553571429 52.7592000000
4651 1 41.0669390850 117.0728571429 51.8097000000
4652 2 43.2810194421 117.0728571429 52.7592000000
4653 1 44.3881122993 115.1553571429 51.8097000000
4654 2 39.9598462279 115.1553571429 48.6232000000
4655 2 43.2810194421 117.0728571429 48.6232000000
4656 1 44.3881122993 115.1553571429 49.5727000000
4657 2 39.9598462279 118.9903571429 52.7592000000
4658 1 41.0669390850 120.9078571429 51.8097000000
4659 2 43.2810194421 120.9078571429 52.7592000000
4660 1 44.3881122993 118.9903571429 51.8097000000
4661 2 39.9598462279 118.9903571429 48.6232000000
4662 1 41.0669390850 120.9078571429 49.5727000000
4663 2 43.2810194421 120.9078571429 48.6232000000
4664 1 44.3881122993 118.9903571429 49.5727000000
4665 2 46.6022980136 115.1553571429 52.7592000000
4666 1 47.7092855136 117.0728571429 51.8097000000
4667 2 49.9234712279 117.0728571429 52.7592000000
4668 1 51.0305640850 115.1553571429 51.8097000000
4669 2 46.6022980136 115.1553571429 48.6232000000
4670 1 47.7092855136 117.0728571429 49.5727000000
4671 2 49.9234712279 117.0728571429 48.6232000000
4672 1 51.0305640850 115.1553571429 49.5727000000
4673 2 46.6022980136 118.9903571429 52.7592000000
4674 2 49.9234712279 120.9078571429 52.7592000000
4675 1 51.0305640850 118.9903571429 51.8097000000
4676 2 46.6022980136 118.9903571429 48.6232000000
4677 1 47.7092855136 120.9078571429 49.5727000000
4678 2 49.9234712279 120.9078571429 48.6232000000
4679 1 51.0305640850 118.9903571429 49.5727000000
4680 2 53.2446759229 115.1553571429 52.7592000000
4681 1 54.3517687800 117.0728571429 51.8097000000
4682 2 56.5658491371 117.0728571429 52.7592000000
4683 1 57.6729419943 115.1553571429 51.8097000000
4684 2 53.2446759229 115.1553571429 48.6232000000
4685 1 54.3517687800 117.0728571429 49.5727000000
4686 2 56.5658491371 117.0728571429 48.6232000000
4687 1 57.6729419943 115.1553571429 49.5727000000
4688 2 53.2446759229 118.9903571429 52.7592000000
4689 1 54.3517687800 120.9078571429 51.8097000000
4690 2 56.5658491371 120.9078571429 52.7592000000
4691 1 57.6729419943 118.9903571429 51.8097000000
4692 2 53.2446759229 118.9903571429 48.6232000000
4693 1 54.3517687800 120.9078571429 49.5727000000
4694 2 56.5658491371 120.9078571429 48.6232000000
4695 2 59.8871277086 115.1553571429 52.7592000000
4696 1 60.9941152086 117.0728571429 51.8097000000
4697 2 63.2083009229 117.0728571429 52.7592000000
4698 1 64.3153937800 115.1553571429 51.8097000000
4699 2 59.8871277086 115.1553571429 48.6232000000
4700 1 60.9941152086 117.0728571429 49.5727000000
4701 2 63.2083009229 117.0728571429 48.6232000000
4702 1 64.3153937800 115.1553571429 49.5727000000
4703 2 59.8871277086 118.9903571429 52.7592000000
4704 1 60.9941152086 120.9078571429 51.8097000000
4705 2 63.2083009229 120.9078571429 52.7592000000
4706 2 59.8871277086 118.9903571429 48.6232000000
4707 1 60.9941152086 120.9078571429 49.5727000000
4708 2 63.2083009229 120.9078571429 48.6232000000
4709 1 64.3153937800 118.9903571429 49.5727000000
4710 2 66.5295056179 115.1553571429 52.7592000000
4711 1 67.6365984750 117.0728571429 51.8097000000
4712 2 69.8506788321 117.0728571429 52.7592000000
4713 1 70.9577716893 115.1553571429 51.8097000000
4714 2 66.5295056179 115.1553571429 48.6232000000
4715 1 67.6365984750 117.0728571429 49.5727000000
4716 2 69.8506788321 117.0728571429 48.6232000000
4717 1 70.9577716893 115.1553571429 49.5727000000
4718 2 66.5295056179 118.9903571429 52.7592000000
4719 1 67.6365984750 120.9078571429 51.8097000000
4720 2 69.8506788321 120.9078571429 52.7592000000
4721 1 70.9577716893 118.9903571429 51.8097000000
4722 2 66.5295056179 118.9903571429 48.6232000000
4723 1 67.6365984750 120.9078571429 49.5727000000
4724 2 69.8506788321 120.9078571429 48.6232000000
4725 1 70.9577716893 118.9903571429 49.5727000000
4726 2 73.1719574036 115.1553571429 52.7592000000
4727 1 74.2789449036 117.0728571429 51.8097000000
4728 2 76.4931306179 117.0728571429 52.7592000000
4729 1 77.6002234750 115.1553571429 51.8097000000
4730 2 73.1719574036 115.1553571429 48.6232000000
4731 1 74.2789449036 117.0728571429 49.5727000000
4732 2 76.4931306179 117.0728571429 48.6232000000
4733 1 77.6002234750 115.1553571429 49.5727000000
4734 2 73.1719574036 118.9903571429 52.7592000000
4735 1 74.2789449036 120.9078571429 51.8097000000
4736 2 76.4931306179 120.9078571429 52.7592000000
4737 1 77.6002234750 118.9903571429 51.8097000000
4738 2 73.1719574036 118.9903571429 48.6232000000
4739 1 74.2789449036 120.9078571429 49.5727000000
4740 2 76.4931306179 120.9078571429 48.6232000000
4741 1 77.6002234750 118.9903571429 49.5727000000
4742 2 79.8143353129 115.1553571429 52.7592000000
4743 1 80.9214281700 117.0728571429 51.8097000000
4744 2 83.1355085271 117.0728571429 52.7592000000
4745 1 84.2426013843 115.1553571429 51.8097000000
4746 2 79.8143353129 115.1553571429 48.6232000000
4747 1 80.9214281700 117.0728571429 49.5727000000
4748 2 83.1355085271 117.0728571429 48.6232000000
4749 1 84.2426013843 115.1553571429 49.5727000000
4750 2 79.8143353129 118.9903571429 52.7592000000
4751 1 80.9214281700 120.9078571429 51.8097000000
4752 2 83.1355085271 120.9078571429 52.7592000000
4753 1 84.2426013843 118.9903571429 51.8097000000
4754 2 79.8143353129 118.9903571429 48.6232000000
4755 1 80.9214281700 120.9078571429 49.5727000000
4756 2 83.1355085271 120.9078571429 48.6232000000
4757 1 84.2426013843 118.9903571429 49.5727000000
4758 2 86.4567870986 115.1553571429 52.7592000000
4759 2 89.7779603129 117.0728571429 52.7592000000
4760 1 90.8850531700 115.1553571429 51.8097000000
4761 2 86.4567870986 115.1553571429 48.6232000000
4762 1 87.5637745986 117.0728571429 49.5727000000
4763 2 89.7779603129 117.0728571429 48.6232000000
4764 1 90.8850531700 115.1553571429 49.5727000000
4765 2 86.4567870986 118.9903571429 52.7592000000
4766 1 87.5637745986 120.9078571429 51.8097000000
4767 2 89.7779603129 120.9078571429 52.7592000000
4768 1 90.8850531700 118.9903571429 51.8097000000
4769 2 86.4567870986 118.9903571429 48.6232000000
4770 1 87.5637745986 120.9078571429 49.5727000000
4771 2 89.7779603129 120.9078571429 48.6232000000
4772 1 90.8850531700 118.9903571429 49.5727000000
4773 2 93.0991650079 115.1553571429 52.7592000000
4774 1 94.2062578650 117.0728571429 51.8097000000
4775 2 96.4203382221 117.0728571429 52.7592000000
4776 1 97.5274310793 115.1553571429 51.8097000000
4777 2 93.0991650079 115.1553571429 48.6232000000
4778 2 96.4203382221 117.0728571429 48.6232000000
4779 1 97.5274310793 115.1553571429 49.5727000000
4780 2 93.0991650079 118.9903571429 52.7592000000
4781 1 94.2062578650 120.9078571429 51.8097000000
4782 2 96.4203382221 120.9078571429 52.7592000000
4783 1 97.5274310793 118.9903571429 51.8097000000
4784 2 93.0991650079 118.9903571429 48.6232000000
4785 1 94.2062578650 120.9078571429 49.5727000000
4786 2 96.4203382221 120.9078571429 48.6232000000
4787 1 97.5274310793 118.9903571429 49.5727000000
4788 2 99.7416167936 115.1553571429 52.7592000000
4789 1 100.8486042936 117.0728571429 51.8097000000
4790 2 103.0627900079 117.0728571429 52.7592000000
4791 1 104.1698828650 115.1553571429 51.8097000000
4792 2 99.7416167936 115.1553571429 48.6232000000
4793 1 100.8486042936 117.0728571429 49.5727000000
4794 2 103.0627900079 117.0728571429 48.6232000000
4795 1 104.1698828650 115.1553571429 49.5727000000
4796 2 99.7416167936 118.9903571429 52.7592000000
4797 1 100.8486042936 120.9078571429 51.8097000000
4798 2 103.0627900079 120.9078571429 52.7592000000
4799 1 104.1698828650 118.9903571429 51.8097000000
4800 2 99.7416167936 118.9903571429 48.6232000000
4801 2 103.0627900079 120.9078571429 48.6232000000
4802 1 104.1698828650 118.9903571429 49.5727000000
4803 2 106.3839947029 115.1553571429 52.7592000000
4804 1 107.4910875600 117.0728571429 51.8097000000
4805 2 109.7051679171 117.0728571429 52.7592000000
4806 1 110.8122607743 115.1553571429 51.8097000000
4807 2 106.3839947029 115.1553571429 48.6232000000
4808 1 107.4910875600 117.0728571429 49.5727000000
4809 2 109.7051679171 117.0728571429 48.6232000000
4810 1 110.8122607743 115.1553571429 49.5727000000
4811 2 106.3839947029 118.9903571429 52.7592000000
4812 1 107.4910875600 120.9078571429 51.8097000000
4813 2 109.7051679171 120.9078571429 52.7592000000
4814 1 110.8122607743 118.9903571429 51.8097000000
4815 2 106.3839947029 118.9903571429 48.6232000000
4816 1 107.4910875600 120.9078571429 49.5727000000
4817 2 109.7051679171 120.9078571429 48.6232000000
4818 1 110.8122607743 118.9903571429 49.5727000000
4819 2 113.0264464886 115.1553571429 52.7592000000
4820 2 116.3476197029 117.0728571429 52.7592000000
4821 1 117.4547125600 115.1553571429 51.8097000000
4822 2 113.0264464886 115.1553571429 48.6232000000
4823 1 114.1334339886 117.0728571429 49.5727000000
4824 2 116.3476197029 117.0728571429 48.6232000000
4825 1 117.4547125600 115.1553571429 49.5727000000
4826 2 113.0264464886 118.9903571429 52.7592000000
4827 1 114.1334339886 120.9078571429 51.8097000000
4828 2 116.3476197029 120.9078571429 52.7592000000
4829 1 117.4547125600 118.9903571429 51.8097000000
4830 2 113.0264464886 118.9903571429 48.6232000000
4831 1 114.1334339886 120.9078571429 49.5727000000
4832 2 116.3476197029 120.9078571429 48.6232000000
4833 1 117.4547125600 118.9903571429 49.5727000000
4834 2 119.6688243979 115.1553571429 52.7592000000
4835 1 120.7759172550 117.0728571429 51.8097000000
4836 2 122.9899976121 117.0728571429 52.7592000000
4837 1 124.0970904693 115.1553571429 51.8097000000
4838 2 119.6688243979 115.1553571429 48.6232000000
4839 1 120.7759172550 117.0728571429 49.5727000000
4840 2 122.9899976121 117.0728571429 48.6232000000
4841 1 124.0970904693 115.1553571429 49.5727000000
4842 2 119.6688243979 118.9903571429 52.7592000000
4843 1 120.7759172550 120.9078571429 51.8097000000
4844 2 122.9899976121 120.9078571429 52.7592000000
4845 1 124.0970904693 118.9903571429 51.8097000000
4846 2 119.6688243979 118.9903571429 48.6232000000
4847 1 120.7759172550 120.9078571429 49.5727000000
4848 2 122.9899976121 120.9078571429 48.6232000000
4849 1 124.0970904693 118.9903571429 49.5727000000
4850 2 126.3112761836 115.1553571429 52.7592000000
4851 1 127.4182636836 117.0728571429 51.8097000000
4852 2 129.6324493979 117.0728571429 52.7592000000
4853 1 130.7395422550 115.1553571429 51.8097000000
4854 2 126.3112761836 115.1553571429 48.6232000000
4855 1 127.4182636836 117.0728571429 49.5727000000
4856 2 129.6324493979 117.0728571429 48.6232000000
4857 1 130.7395422550 115.1553571429 49.5727000000
4858 2 126.3112761836 118.9903571429 52.7592000000
4859 1 127.4182636836 120.9078571429 51.8097000000
4860 2 129.6324493979 120.9078571429 52.7592000000
4861 1 130.7395422550 118.9903571429 51.8097000000
4862 2 126.3112761836 118.9903571429 48.6232000000
4863 1 127.4182636836 120.9078571429 49.5727000000
4864 2 129.6324493979 120.9078571429 48.6232000000
4865 1 130.7395422550 118.9903571429 49.5727000000
4866 2 0.1053571429 122.8253571429 52.7592000000
4867 1 1.2124500000 124.7428571429 51.8097000000
4868 2 3.4265303571 124.7428571429 52.7592000000
4869 1 4.5336232143 122.8253571429 51.8097000000
4870 2 0.1053571429 122.8253571429 48.6232000000
4871 1 1.2124500000 124.7428571429 49.5727000000
4872 2 3.4265303571 124.7428571429 48.6232000000
4873 1 4.5336232143 122.8253571429 49.5727000000
4874 2 0.1053571429 126.6603571429 52.7592000000
4875 1 1.2124500000 128.5778571429 51.8097000000
4876 2 3.4265303571 128.5778571429 52.7592000000
4877 1 4.5336232143 126.6603571429 51.8097000000
4878 2 0.1053571429 126.6603571429 48.6232000000
4879 1 1.2124500000 128.5778571429 49.5727000000
4880 2 3.4265303571 128.5778571429 48.6232000000
4881 1 4.5336232143 126.6603571429 49.5727000000
4882 2 6.7478089286 122.8253571429 52.7592000000
4883 1 7.8547964286 124.7428571429 51.8097000000
4884 2 10.0689821429 124.7428571429 52.7592000000
4885 1 11.1760750000 122.8253571429 51.8097000000
4886 2 6.7478089286 122.8253571429 48.6232000000
4887 2 10.0689821429 124.7428571429 48.6232000000
4888 1 11.1760750000 122.8253571429 49.5727000000
4889 2 6.7478089286 126.6603571429 52.7592000000
4890 1 7.8547964286 128.5778571429 51.8097000000
4891 2 10.0689821429 128.5778571429 52.7592000000
4892 1 11.1760750000 126.6603571429 51.8097000000
4893 2 6.7478089286 126.6603571429 48.6232000000
4894 1 7.8547964286 128.5778571429 49.5727000000
4895 2 10.0689821429 128.5778571429 48.6232000000
4896 1 11.1760750000 126.6603571429 49.5727000000
4897 2 13.3901868379 122.8253571429 52.7592000000
4898 1 14.4972796950 124.7428571429 51.8097000000
4899 2 16.7113600521 124.7428571429 52.7592000000
4900 1 17.8184529093 122.8253571429 51.8097000000
4901 2 13.3901868379 122.8253571429 48.6232000000
4902 1 14.4972796950 124.7428571429 49.5727000000
4903 2 16.7113600521 124.7428571429 48.6232000000
4904 1 17.8184529093 122.8253571429 49.5727000000
4905 2 13.3901868379 126.6603571429 52.7592000000
4906 2 16.7113600521 128.5778571429 52.7592000000
4907 1 17.8184529093 126.6603571429 51.8097000000
4908 2 13.3901868379 126.6603571429 48.6232000000
4909 1 14.4972796950 128.5778571429 49.5727000000
4910 2 16.7113600521 128.5778571429 48.6232000000
4911 1 17.8184529093 126.6603571429 49.5727000000
4912 2 20.0326386236 122.8253571429 52.7592000000
4913 1 21.1396261236 124.7428571429 51.8097000000
4914 2 23.3538118379 124.7428571429 52.7592000000
4915 1 24.4609046950 122.8253571429 51.8097000000
4916 2 20.0326386236 122.8253571429 48.6232000000
4917 1 21.1396261236 124.7428571429 49.5727000000
4918 2 23.3538118379 124.7428571429 48.6232000000
4919 1 24.4609046950 122.8253571429 49.5727000000
4920 2 20.0326386236 126.6603571429 52.7592000000
4921 1 21.1396261236 128.5778571429 51.8097000000
4922 2 23.3538118379 128.5778571429 52.7592000000
4923 1 24.4609046950 126.6603571429 51.8097000000
4924 2 20.0326386236 126.6603571429 48.6232000000
4925 1 21.1396261236 128.5778571429 49.5727000000
4926 2 23.3538118379 128.5778571429 48.6232000000
4927 1 24.4609046950 126.6603571429 49.5727000000
4928 2 26.6750165329 122.8253571429 52.7592000000
4929 1 27.7821093900 124.7428571429 51.8097000000
4930 2 29.9961897471 124.7428571429 52.7592000000
4931 2 26.6750165329 122.8253571429 48.6232000000
4932 1 27.7821093900 124.7428571429 49.5727000000
4933 2 29.9961897471 124.7428571429 48.6232000000
4934 1 31.1032826043 122.8253571429 49.5727000000
4935 2 26.6750165329 126.6603571429 52.7592000000
4936 1 27.7821093900 128.5778571429 51.8097000000
4937 2 29.9961897471 128.5778571429 52.7592000000
4938 1 31.1032826043 126.6603571429 51.8097000000
4939 2 26.6750165329 126.6603571429 48.6232000000
4940 1 27.7821093900 128.5778571429 49.5727000000
4941 2 29.9961897471 128.5778571429 48.6232000000
4942 1 31.1032826043 126.6603571429 49.5727000000
4943 2 33.3174683186 122.8253571429 52.7592000000
4944 1 34.4244558186 124.7428571429 51.8097000000
4945 2 36.6386415329 124.7428571429 52.7592000000
4946 2 33.3174683186 122.8253571429 48.6232000000
4947 1 34.4244558186 124.7428571429 49.5727000000
4948 2 36.6386415329 124.7428571429 48.6232000000
4949 1 37.7457343900 122.8253571429 49.5727000000
4950 2 33.3174683186 126.6603571429 52.7592000000
4951 1 34.4244558186 128.5778571429 51.8097000000
4952 2 36.6386415329 128.5778571429 52.7592000000
4953 1 37.7457343900 126.6603571429 51.8097000000
4954 2 33.3174683186 126.6603571429 48.6232000000
4955 1 34.4244558186 128.5778571429 49.5727000000
4956 2 36.6386415329 128.5778571429 48.6232000000
4957 1 37.7457343900 126.6603571429 49.5727000000
4958 2 39.9598462279 122.8253571429 52.7592000000
4959 1 41.0669390850 124.7428571429 51.8097000000
4960 2 43.2810194421 124.7428571429 52.7592000000
4961 1 44.3881122993 122.8253571429 51.8097000000
4962 2 39.9598462279 122.8253571429 48.6232000000
4963 1 41.0669390850 124.7428571429 49.5727000000
4964 2 43.2810194421 124.7428571429 48.6232000000
4965 1 44.3881122993 122.8253571429 49.5727000000
4966 2 39.9598462279 126.6603571429 52.7592000000
4967 1 41.0669390850 128.5778571429 51.8097000000
4968 2 43.2810194421 128.5778571429 52.7592000000
4969 1 44.3881122993 126.6603571429 51.8097000000
4970 2 39.9598462279 126.6603571429 48.6232000000
4971 2 43.2810194421 128.5778571429 48.6232000000
4972 1 44.3881122993 126.6603571429 49.5727000000
4973 2 46.6022980136 122.8253571429 52.7592000000
4974 1 47.7092855136 124.7428571429 51.8097000000
4975 2 49.9234712279 124.7428571429 52.7592000000
4976 1 51.0305640850 122.8253571429 51.8097000000
4977 2 46.6022980136 122.8253571429 48.6232000000
4978 1 47.7092855136 124.7428571429 49.5727000000
4979 2 49.9234712279 124.7428571429 48.6232000000
4980 1 51.0305640850 122.8253571429 49.5727000000
4981 2 46.6022980136 126.6603571429 52.7592000000
4982 1 47.7092855136 128.5778571429 51.8097000000
4983 2 49.9234712279 128.5778571429 52.7592000000
4984 1 51.0305640850 126.6603571429 51.8097000000
4985 2 46.6022980136 126.6603571429 48.6232000000
4986 1 47.7092855136 128.5778571429 49.5727000000
4987 2 49.9234712279 128.5778571429 48.6232000000
4988 1 51.0305640850 126.6603571429 49.5727000000
4989 2 53.2446759229 122.8253571429 52.7592000000
4990 1 54.3517687800 124.7428571429 51.8097000000
4991 2 56.5658491371 124.7428571429 52.7592000000
4992 1 57.6729419943 122.8253571429 51.8097000000
4993 2 53.2446759229 122.8253571429 48.6232000000
4994 1 54.3517687800 124.7428571429 49.5727000000
4995 2 56.5658491371 124.7428571429 48.6232000000
4996 1 57.6729419943 122.8253571429 49.5727000000
4997 2 53.2446759229 126.6603571429 52.7592000000
4998 2 56.5658491371 128.5778571429 52.7592000000
4999 1 57.6729419943 126.6603571429 51.8097000000
5000 2 53.2446759229 126.6603571429 48.6232000000
5001 1 54.3517687800 128.5778571429 49.5727000000
5002 2 56.5658491371 128.5778571429 48.6232000000
5003 1 57.6729419943 126.6603571429 49.5727000000
5004 2 59.8871277086 122.8253571429 52.7592000000
5005 1 60.9941152086 124.7428571429 51.8097000000
5006 2 63.2083009229 124.7428571429 52.7592000000
5007 1 64.3153937800 122.8253571429 51.8097000000
5008 2 59.8871277086 122.8253571429 48.6232000000
5009 2 63.2083009229 124.7428571429 48.6232000000
5010 1 64.3153937800 122.8253571429 49.5727000000
5011 2 59.8871277086 126.6603571429 52.7592000000
5012 1 60.9941152086 128.5778571429 51.8097000000
5013 2 63.2083009229 128.5778571429 52.7592000000
5014 1 64.3153937800 126.6603571429 51.8097000000
5015 2 59.8871277086 126.6603571429 48.6232000000
5016 1 60.9941152086 128.5778571429 49.5727000000
5017 2 63.2083009229 128.5778571429 48.6232000000
5018 1 64.3153937800 126.6603571429 49.5727000000
5019 2 66.5295056179 122.8253571429 52.7592000000
5020 1 67.6365984750 124.7428571429 51.8097000000
5021 2 69.8506788321 124.7428571429 52.7592000000
5022 2 66.5295056179 122.8253571429 48.6232000000
5023 1 67.6365984750 124.7428571429 49.5727000000
5024 2 69.8506788321 124.7428571429 48.6232000000
5025 1 70.9577716893 122.8253571429 49.5727000000
5026 2 66.5295056179 126.6603571429 52.7592000000
5027 1 67.6365984750 128.5778571429 51.8097000000
5028 2 69.8506788321 128.5778571429 52.7592000000
5029 1 70.9577716893 126.6603571429 51.8097000000
5030 2 66.5295056179 126.6603571429 48.6232000000
5031 1 67.6365984750 128.5778571429 49.5727000000
5032 2 69.8506788321 128.5778571429 48.6232000000
5033 1 70.9577716893 126.6603571429 49.5727000000
5034 2 73.1719574036 122.8253571429 52.7592000000
5035 1 74.2789449036 124.7428571429 51.8097000000
5036 2 76.4931306179 124.7428571429 52.7592000000
5037 1 77.6002234750 122.8253571429 51.8097000000
5038 2 73.1719574036 122.8253571429 48.6232000000
5039 1 74.2789449036 124.7428571429 49.5727000000
5040 2 76.4931306179 124.7428571429 48.6232000000
5041 2 73.1719574036 126.6603571429 52.7592000000
5042 1 74.2789449036 128.5778571429 51.8097000000
5043 2 76.4931306179 128.5778571429 52.7592000000
5044 1 77.6002234750 126.6603571429 51.8097000000
5045 2 73.1719574036 126.6603571429 48.6232000000
5046 1 74.2789449036 128.5778571429 49.5727000000
5047 2 76.4931306179 128.5778571429 48.6232000000
5048 1 77.6002234750 126.6603571429 49.5727000000
5049 2 79.8143353129 122.8253571429 52.7592000000
5050 1 80.9214281700 124.7428571429 51.8097000000
5051 2 83.1355085271 124.7428571429 52.7592000000
5052 1 84.2426013843 122.8253571429 51.8097000000
5053 2 79.8143353129 122.8253571429 48.6232000000
5054 1 80.9214281700 124.7428571429 49.5727000000
5055 2 83.1355085271 124.7428571429 48.6232000000
5056 1 84.2426013843 122.8253571429 49.5727000000
5057 2 79.8143353129 126.6603571429 52.7592000000
5058 1 80.9214281700 128.5778571429 51.8097000000
5059 2 83.1355085271 128.5778571429 52.7592000000
5060 1 84.2426013843 126.6603571429 51.8097000000
5061 2 79.8143353129 126.6603571429 48.6232000000
5062 1 80.9214281700 128.5778571429 49.5727000000
5063 2 83.1355085271 128.5778571429 48.6232000000
5064 1 84.2426013843 126.6603571429 49.5727000000
5065 2 86.4567870986 122.8253571429 52.7592000000
5066 2 89.7779603129 124.7428571429 52.7592000000
5067 1 90.8850531700 122.8253571429 51.8097000000
5068 2 86.4567870986 122.8253571429 48.6232000000
5069 1 87.5637745986 124.7428571429 49.5727000000
5070 2 89.7779603129 124.7428571429 48.6232000000
5071 1 90.8850531700 122.8253571429 49.5727000000
5072 2 86.4567870986 126.6603571429 52.7592000000
5073 1 87.5637745986 128.5778571429 51.8097000000
5074 2 89.7779603129 128.5778571429 52.7592000000
5075 1 90.8850531700 126.6603571429 51.8097000000
5076 2 86.4567870986 126.6603571429 48.6232000000
5077 1 87.5637745986 128.5778571429 49.5727000000
5078 2 89.7779603129 128.5778571429 48.6232000000
5079 1 90.8850531700 126.6603571429 49.5727000000
5080 2 93.0991650079 122.8253571429 52.7592000000
5081 2 96.4203382221 124.7428571429 52.7592000000
5082 1 97.5274310793 122.8253571429 51.8097000000
5083 2 93.0991650079 122.8253571429 48.6232000000
5084 1 94.2062578650 124.7428571429 49.5727000000
5085 2 96.4203382221 124.7428571429 48.6232000000
5086 1 97.5274310793 122.8253571429 49.5727000000
5087 2 93.0991650079 126.6603571429 52.7592000000
5088 1 94.2062578650 128.5778571429 51.8097000000
5089 2 96.4203382221 128.5778571429 52.7592000000
5090 1 97.5274310793 126.6603571429 51.8097000000
5091 2 93.0991650079 126.6603571429 48.6232000000
5092 1 94.2062578650 128.5778571429 49.5727000000
5093 2 96.4203382221 128.5778571429 48.6232000000
5094 1 97.5274310793 126.6603571429 49.5727000000
5095 2 99.7416167936 122.8253571429 52.7592000000
5096 1 100.8486042936 124.7428571429 51.8097000000
5097 2 103.0627900079 124.7428571429 52.7592000000
5098 1 104.1698828650 122.8253571429 51.8097000000
5099 2 99.7416167936 122.8253571429 48.6232000000
5100 1 100.8486042936 124.7428571429 49.5727000000
5101 2 103.0627900079 124.7428571429 48.6232000000
5102 1 104.1698828650 122.8253571429 49.5727000000
5103 2 99.7416167936 126.6603571429 52.7592000000
5104 1 100.8486042936 128.5778571429 51.8097000000
5105 2 103.0627900079 128.5778571429 52.7592000000
5106 2 99.7416167936 126.6603571429 48.6232000000
5107 1 100.8486042936 128.5778571429 49.5727000000
5108 2 103.0627900079 128.5778571429 48.6232000000
5109 1 104.1698828650 126.6603571429 49.5727000000
5110 2 106.3839947029 122.8253571429 52.7592000000
5111 1 107.4910875600 124.7428571429 51.8097000000
5112 2 109.7051679171 124.7428571429 52.7592000000
5113 1 110.8122607743 122.8253571429 51.8097000000
5114 2 106.3839947029 122.8253571429 48.6232000000
5115 1 107.4910875600 124.7428571429 49.5727000000
5116 2 109.7051679171 124.7428571429 48.6232000000
5117 1 110.8122607743 122.8253571429 49.5727000000
5118 2 106.3839947029 126.6603571429 52.7592000000
5119 1 107.4910875600 128.5778571429 51.8097000000
5120 2 109.7051679171 128.5778571429 52.7592000000
5121 2 106.3839947029 126.6603571429 48.6232000000
5122 1 107.4910875600 128.5778571429 49.5727000000
5123 2 109.7051679171 128.5778571429 48.6232000000
5124 1 110.8122607743 126.6603571429 49.5727000000
5125 2 113.0264464886 122.8253571429 52.7592000000
5126 1 114.1334339886 124.7428571429 51.8097000000
5127 2 116.3476197029 124.7428571429 52.7592000000
5128 1 117.4547125600 122.8253571429 51.8097000000
5129 2 113.0264464886 122.8253571429 48.6232000000
5130 1 114.1334339886 124.7428571429 49.5727000000
5131 2 116.3476197029 124.7428571429 48.6232000000
5132 1 117.4547125600 122.8253571429 49.5727000000
5133 2 113.0264464886 126.6603571429 52.7592000000
5134 1 114.1334339886 128.5778571429 51.8097000000
5135 2 116.3476197029 128.5778571429 52.7592000000
5136 1 117.4547125600 126.6603571429 51.8097000000
5137 2 113.0264464886 126.6603571429 48.6232000000
5138 1 114.1334339886 128.5778571429 49.5727000000
5139 2 116.3476197029 128.5778571429 48.6232000000
5140 1 117.4547125600 126.6603571429 49.5727000000
5141 2 119.6688243979 122.8253571429 52.7592000000
5142 1 120.7759172550 124.7428571429 51.8097000000
5143 2 122.9899976121 124.7428571429 52.7592000000
5144 1 124.0970904693 122.8253571429 51.8097000000
5145 2 119.6688243979 122.8253571429 48.6232000000
5146 2 122.9899976121 124.7428571429 48.6232000000
5147 1 124.0970904693 122.8253571429 49.5727000000
5148 2 119.6688243979 126.6603571429 52.7592000000
5149 1 120.7759172550 128.5778571429 51.8097000000
5150 2 122.9899976121 128.5778571429 52.7592000000
5151 1 124.0970904693 126.6603571429 51.8097000000
5152 2 119.6688243979 126.6603571429 48.6232000000
5153 1 120.7759172550 128.5778571429 49.5727000000
5154 2 122.9899976121 128.5778571429 48.6232000000
5155 1 124.0970904693 126.6603571429 49.5727000000
5156 2 126.3112761836 122.8253571429 52.7592000000
5157 2 129.6324493979 124.7428571429 52.7592000000
5158 1 130.7395422550 122.8253571429 51.8097000000
5159 2 126.3112761836 122.8253571429 48.6232000000
5160 1 127.4182636836 124.7428571429 49.5727000000
5161 2 129.6324493979 124.7428571429 48.6232000000
5162 1 130.7395422550 122.8253571429 49.5727000000
5163 2 126.3112761836 126.6603571429 52.7592000000
5164 1 127.4182636836 128.5778571429 51.8097000000
5165 2 129.6324493979 128.5778571429 52.7592000000
5166 1 130.7395422550 126.6603571429 51.8097000000
5167 2 126.3112761836 126.6603571429 48.6232000000
5168 1 127.4182636836 128.5778571429 49.5727000000
5169 2 129.6324493979 128.5778571429 48.6232000000
5170 1 130.7395422550 126.6603571429 49.5727000000
5171 2 0.1053571429 130.4953571429 52.7592000000
5172 1 1.2124500000 132.4128571429 51.8097000000
5173 2 3.4265303571 132.4128571429 52.7592000000
5174 1 4.5336232143 130.4953571429 51.8097000000
5175 2 0.1053571429 130.4953571429 48.6232000000
5176 1 1.2124500000 132.4128571429 49.5727000000
5177 2 3.4265303571 132.4128571429 48.6232000000
5178 1 4.5336232143 130.4953571429 49.5727000000
5179 2 0.1053571429 134.3303571429 52.7592000000
5180 1 1.2124500000 136.2478571429 51.8097000000
5181 2 3.4265303571 136.2478571429 52.7592000000
5182 1 4.5336232143 134.3303571429 51.8097000000
5183 2 0.1053571429 134.3303571429 48.6232000000
5184 1 1.2124500000 136.2478571429 49.5727000000
5185 2 3.4265303571 136.2478571429 48.6232000000
5186 1 4.5336232143 134.3303571429 49.5727000000
5187 2 6.7478089286 130.4953571429 52.7592000000
5188 2 10.0689821429 132.4128571429 52.7592000000
5189 1 11.1760750000 130.4953571429 51.8097000000
5190 2 6.7478089286 130.4953571429 48.6232000000
5191 1 7.8547964286 132.4128571429 49.5727000000
5192 2 10.0689821429 132.4128571429 48.6232000000
5193 1 11.1760750000 130.4953571429 49.5727000000
5194 2 6.7478089286 134.3303571429 52.7592000000
5195 1 7.8547964286 136.2478571429 51.8097000000
5196 2 10.0689821429 136.2478571429 52.7592000000
5197 1 11.1760750000 134.3303571429 51.8097000000
5198 2 6.7478089286 134.3303571429 48.6232000000
5199 1 7.8547964286 136.2478571429 49.5727000000
5200 2 10.0689821429 136.2478571429 48.6232000000
5201 1 11.1760750000 134.3303571429 49.5727000000
5202 2 13.3901868379 130.4953571429 52.7592000000
5203 1 14.4972796950 132.4128571429 51.8097000000
5204 2 16.7113600521 132.4128571429 52.7592000000
5205 1 17.8184529093 130.4953571429 51.8097000000
5206 2 13.3901868379 130.4953571429 48.6232000000
5207 1 14.4972796950 132.4128571429 49.5727000000
5208 2 16.7113600521 132.4128571429 48.6232000000
5209 1 17.8184529093 130.4953571429 49.5727000000
5210 2 13.3901868379 134.3303571429 52.7592000000
5211 1 14.4972796950 136.2478571429 51.8097000000
5212 2 16.7113600521 136.2478571429 52.7592000000
5213 1 17.8184529093 134.3303571429 51.8097000000
5214 2 13.3901868379 134.3303571429 48.6232000000
5215 1 14.4972796950 136.2478571429 49.5727000000
5216 2 16.7113600521 136.2478571429 48.6232000000
5217 1 17.8184529093 134.3303571429 49.5727000000
5218 2 20.0326386236 130.4953571429 52.7592000000
5219 1 21.1396261236 132.4128571429 51.8097000000
5220 2 23.3538118379 132.4128571429 52.7592000000
5221 2 20.0326386236 130.4953571429 48.6232000000
5222 1 21.1396261236 132.4128571429 49.5727000000
5223 2 23.3538118379 132.4128571429 48.6232000000
5224 1 24.4609046950 130.4953571429 49.5727000000
5225 2 20.0326386236 134.3303571429 52.7592000000
5226 1 21.1396261236 136.2478571429 51.8097000000
5227 2 23.3538118379 136.2478571429 52.7592000000
5228 1 24.4609046950 134.3303571429 51.8097000000
5229 2 20.0326386236 134.3303571429 48.6232000000
5230 1 21.1396261236 136.2478571429 49.5727000000
5231 2 23.3538118379 136.2478571429 48.6232000000
5232 1 24.4609046950 134.3303571429 49.5727000000
5233 2 26.6750165329 130.4953571429 52.7592000000
5234 1 27.7821093900 132.4128571429 51.8097000000
5235 2 29.9961897471 132.4128571429 52.7592000000
5236 1 31.1032826043 130.4953571429 51.8097000000
5237 2 26.6750165329 130.4953571429 48.6232000000
5238 1 27.7821093900 132.4128571429 49.5727000000
5239 2 29.9961897471 132.4128571429 48.6232000000
5240 2 26.6750165329 134.3303571429 52.7592000000
5241 1 27.7821093900 136.2478571429 51.8097000000
5242 2 29.9961897471 136.2478571429 52.7592000000
5243 1 31.1032826043 134.3303571429 51.8097000000
5244 2 26.6750165329 134.3303571429 48.6232000000
5245 1 27.7821093900 136.2478571429 49.5727000000
5246 2 29.9961897471 136.2478571429 48.6232000000
5247 1 31.1032826043 134.3303571429 49.5727000000
5248 2 33.3174683186 130.4953571429 52.7592000000
5249 1 34.4244558186 132.4128571429 51.8097000000
5250 2 36.6386415329 132.4128571429 52.7592000000
5251 1 37.7457343900 130.4953571429 51.8097000000
5252 2 33.3174683186 130.4953571429 48.6232000000
5253 1 34.4244558186 132.4128571429 49.5727000000
5254 2 36.6386415329 132.4128571429 48.6232000000
5255 1 37.7457343900 130.4953571429 49.5727000000
5256 2 33.3174683186 134.3303571429 52.7592000000
5257 1 34.4244558186 136.2478571429 51.8097000000
5258 2 36.6386415329 136.2478571429 52.7592000000
5259 1 37.7457343900 134.3303571429 51.8097000000
5260 2 33.3174683186 134.3303571429 48.6232000000
5261 1 34.4244558186 136.2478571429 49.5727000000
5262 2 36.6386415329 136.2478571429 48.6232000000
5263 2 39.9598462279 130.4953571429 52.7592000000
5264 1 41.0669390850 132.4128571429 51.8097000000
5265 2 43.2810194421 132.4128571429 52.7592000000
5266 1 44.3881122993 130.4953571429 51.8097000000
5267 2 39.9598462279 130.4953571429 48.6232000000
5268 1 41.0669390850 132.4128571429 49.5727000000
5269 2 43.2810194421 132.4128571429 48.6232000000
5270 1 44.3881122993 130.4953571429 49.5727000000
5271 2 39.9598462279 134.3303571429 52.7592000000
5272 1 41.0669390850 136.2478571429 51.8097000000
5273 2 43.2810194421 136.2478571429 52.7592000000
5274 1 44.3881122993 134.3303571429 51.8097000000
5275 2 39.9598462279 134.3303571429 48.6232000000
5276 1 41.0669390850 136.2478571429 49.5727000000
5277 2 43.2810194421 136.2478571429 48.6232000000
5278 1 44.3881122993 134.3303571429 49.5727000000
5279 2 46.6022980136 130.4953571429 52.7592000000
5280 1 47.7092855136 132.4128571429 51.8097000000
5281 2 49.9234712279 132.4128571429 52.7592000000
5282 1 51.0305640850 130.4953571429 51.8097000000
5283 2 46.6022980136 130.4953571429 48.6232000000
5284 2 49.9234712279 132.4128571429 48.6232000000
5285 1 51.0305640850 130.4953571429 49.5727000000
5286 2 46.6022980136 134.3303571429 52.7592000000
5287 1 47.7092855136 136.2478571429 51.8097000000
5288 2 49.9234712279 136.2478571429 52.7592000000
5289 1 51.0305640850 134.3303571429 51.8097000000
5290 2 46.6022980136 134.3303571429 48.6232000000
5291 1 47.7092855136 136.2478571429 49.5727000000
5292 2 49.9234712279 136.2478571429 48.6232000000
5293 1 51.0305640850 134.3303571429 49.5727000000
5294 2 53.2446759229 130.4953571429 52.7592000000
5295 1 54.3517687800 132.4128571429 51.8097000000
5296 2 56.5658491371 132.4128571429 52.7592000000
5297 1 57.6729419943 130.4953571429 51.8097000000
5298 2 53.2446759229 130.4953571429 48.6232000000
5299 1 54.3517687800 132.4128571429 49.5727000000
5300 2 56.5658491371 132.4128571429 48.6232000000
5301 1 57.6729419943 130.4953571429 49.5727000000
5302 2 53.2446759229 134.3303571429 52.7592000000
5303 1 54.3517687800 136.2478571429 51.8097000000
5304 2 56.5658491371 136.2478571429 52.7592000000
5305 1 57.6729419943 134.3303571429 51.8097000000
5306 2 53.2446759229 134.3303571429 48.6232000000
5307 1 54.3517687800 136.2478571429 49.5727000000
5308 2 56.5658491371 136.2478571429 48.6232000000
5309 1 57.6729419943 134.3303571429 49.5727000000
5310 2 59.8871277086 130.4953571429 52.7592000000
5311 1 60.9941152086 132.4128571429 51.8097000000
5312 2 63.2083009229 132.4128571429 52.7592000000
5313 2 59.8871277086 130.4953571429 48.6232000000
5314 1 60.9941152086 132.4128571429 49.5727000000
5315 2 63.2083009229 132.4128571429 48.6232000000
5316 1 64.3153937800 130.4953571429 49.5727000000
5317 2 59.8871277086 134.3303571429 52.7592000000
5318 2 63.2083009229 136.2478571429 52.7592000000
5319 1 64.3153937800 134.3303571429 51.8097000000
5320 2 59.8871277086 134.3303571429 48.6232000000
5321 1 60.9941152086 136.2478571429 49.5727000000
5322 2 63.2083009229 136.2478571429 48.6232000000
5323 1 64.3153937800 134.3303571429 49.5727000000
5324 2 66.5295056179 130.4953571429 52.7592000000
5325 1 67.6365984750 132.4128571429 51.8097000000
5326 2 69.8506788321 132.4128571429 52.7592000000
5327 1 70.9577716893 130.4953571429 51.8097000000
5328 2 66.5295056179 130.4953571429 48.6232000000
5329 1 67.6365984750 132.4128571429 49.5727000000
5330 2 69.8506788321 132.4128571429 48.6232000000
5331 2 66.5295056179 134.3303571429 52.7592000000
5332 1 67.6365984750 136.2478571429 51.8097000000
5333 2 69.8506788321 136.2478571429 52.7592000000
5334 1 70.9577716893 134.3303571429 51.8097000000
5335 2 66.5295056179 134.3303571429 48.6232000000
5336 1 67.6365984750 136.2478571429 49.5727000000
5337 2 69.8506788321 136.2478571429 48.6232000000
5338 1 70.9577716893 134.3303571429 49.5727000000
5339 2 73.1719574036 130.4953571429 52.7592000000
5340 1 74.2789449036 132.4128571429 51.8097000000
5341 2 76.4931306179 132.4128571429 52.7592000000
5342 2 73.1719574036 130.4953571429 48.6232000000
5343 1 74.2789449036 132.4128571429 49.5727000000
5344 2 76.4931306179 132.4128571429 48.6232000000
5345 1 77.6002234750 130.4953571429 49.5727000000
5346 2 73.1719574036 134.3303571429 52.7592000000
5347 1 74.2789449036 136.2478571429 51.8097000000
5348 2 76.4931306179 136.2478571429 52.7592000000
5349 1 77.6002234750 134.3303571429 51.8097000000
5350 2 73.1719574036 134.3303571429 48.6232000000
5351 2 76.4931306179 136.2478571429 48.6232000000
5352 1 77.6002234750 134.3303571429 49.5727000000
5353 2 79.8143353129 130.4953571429 52.7592000000
5354 1 80.9214281700 132.4128571429 51.8097000000
5355 2 83.1355085271 132.4128571429 52.7592000000
5356 1 84.2426013843 130.4953571429 51.8097000000
5357 2 79.8143353129 130.4953571429 48.6232000000
5358 1 80.9214281700 132.4128571429 49.5727000000
5359 2 83.1355085271 132.4128571429 48.6232000000
5360 1 84.2426013843 130.4953571429 49.5727000000
5361 2 79.8143353129 134.3303571429 52.7592000000
5362 1 80.9214281700 136.2478571429 51.8097000000
5363 2 83.1355085271 136.2478571429 52.7592000000
5364 1 84.2426013843 134.3303571429 51.8097000000
5365 2 79.8143353129 134.3303571429 48.6232000000
5366 2 83.1355085271 136.2478571429 48.6232000000
5367 1 84.2426013843 134.3303571429 49.5727000000
5368 2 86.4567870986 130.4953571429 52.7592000000
5369 1 87.5637745986 132.4128571429 51.8097000000
5370 2 89.7779603129 132.4128571429 52.7592000000
5371 1 90.8850531700 130.4953571429 51.8097000000
5372 2 86.4567870986 130.4953571429 48.6232000000
5373 1 87.5637745986 132.4128571429 49.5727000000
5374 2 89.7779603129 132.4128571429 48.6232000000
5375 2 86.4567870986 134.3303571429 52.7592000000
5376 1 87.5637745986 136.2478571429 51.8097000000
5377 2 89.7779603129 136.2478571429 52.7592000000
5378 1 90.8850531700 134.3303571429 51.8097000000
5379 2 86.4567870986 134.3303571429 48.6232000000
5380 2 89.7779603129 136.2478571429 48.6232000000
5381 1 90.8850531700 134.3303571429 49.5727000000
5382 2 93.0991650079 130.4953571429 52.7592000000
5383 1 94.2062578650 132.4128571429 51.8097000000
5384 2 96.4203382221 132.4128571429 52.7592000000
5385 1 97.5274310793 130.4953571429 51.8097000000
5386 2 93.0991650079 130.4953571429 48.6232000000
5387 1 94.2062578650 132.4128571429 49.5727000000
5388 2 96.4203382221 132.4128571429 48.6232000000
5389 1 97.5274310793 130.4953571429 49.5727000000
5390 2 93.0991650079 134.3303571429 52.7592000000
5391 1 94.2062578650 136.2478571429 51.8097000000
5392 2 96.4203382221 136.2478571429 52.7592000000
5393 2 93.0991650079 134.3303571429 48.6232000000
5394 1 94.2062578650 136.2478571429 49.5727000000
5395 2 96.4203382221 136.2478571429 48.6232000000
5396 1 97.5274310793 134.3303571429 49.5727000000
5397 2 99.7416167936 130.4953571429 52.7592000000
5398 1 100.8486042936 132.4128571429 51.8097000000
5399 2 103.0627900079 132.4128571429 52.7592000000
5400 1 104.1698828650 130.4953571429 51.8097000000
5401 2 99.7416167936 130.4953571429 48.6232000000
5402 1 100.8486042936 132.4128571429 49.5727000000
5403 2 103.0627900079 132.4128571429 48.6232000000
5404 1 104.1698828650 130.4953571429 49.5727000000
5405 2 99.7416167936 134.3303571429 52.7592000000
5406 1 100.8486042936 136.2478571429 51.8097000000
5407 2 103.0627900079 136.2478571429 52.7592000000
5408 1 104.1698828650 134.3303571429 51.8097000000
5409 2 99.7416167936 134.3303571429 48.6232000000
5410 1 100.8486042936 136.2478571429 49.5727000000
5411 2 103.0627900079 136.2478571429 48.6232000000
5412 2 106.3839947029 130.4953571429 52.7592000000
5413 1 107.4910875600 132.4128571429 51.8097000000
5414 2 109.7051679171 132.4128571429 52.7592000000
5415 1 110.8122607743 130.4953571429 51.8097000000
5416 2 106.3839947029 130.4953571429 48.6232000000
5417 1 107.4910875600 132.4128571429 49.5727000000
5418 2 109.7051679171 132.4128571429 48.6232000000
5419 1 110.8122607743 130.4953571429 49.5727000000
5420 2 106.3839947029 134.3303571429 52.7592000000
5421 1 107.4910875600 136.2478571429 51.8097000000
5422 2 109.7051679171 136.2478571429 52.7592000000
5423 1 110.8122607743 134.3303571429 51.8097000000
5424 2 106.3839947029 134.3303571429 48.6232000000
5425 1 107.4910875600 136.2478571429 49.5727000000
5426 2 109.7051679171 136.2478571429 48.6232000000
5427 1 110.8122607743 134.3303571429 49.5727000000
5428 2 113.0264464886 130.4953571429 52.7592000000
5429 1 114.1334339886 132.4128571429 51.8097000000
5430 2 116.3476197029 132.4128571429 52.7592000000
5431 1 117.4547125600 130.4953571429 51.8097000000
5432 2 113.0264464886 130.4953571429 48.6232000000
5433 1 114.1334339886 132.4128571429 49.5727000000
5434 2 116.3476197029 132.4128571429 48.6232000000
5435 1 117.4547125600 130.4953571429 49.5727000000
5436 2 113.0264464886 134.3303571429 52.7592000000
5437 1 114.1334339886 136.2478571429 51.8097000000
5438 2 116.3476197029 136.2478571429 52.7592000000
5439 1 117.4547125600 134.3303571429 51.8097000000
5440 2 113.0264464886 134.3303571429 48.6232000000
5441 2 116.3476197029 136.2478571429 48.6232000000
5442 1 117.4547125600 134.3303571429 49.5727000000
5443 2 119.6688243979 130.4953571429 52.7592000000
5444 1 120.7759172550 132.4128571429 51.8097000000
5445 2 122.9899976121 132.4128571429 52.7592000000
5446 1 124.0970904693 130.4953571429 51.8097000000
5447 2 119.6688243979 130.4953571429 48.6232000000
5448 1 120.7759172550 132.4128571429 49.5727000000
5449 2 122.9899976121 132.4128571429 48.6232000000
5450 2 119.6688243979 134.3303571429 52.7592000000
5451 1 120.7759172550 136.2478571429 51.8097000000
5452 2 122.9899976121 136.2478571429 52.7592000000
5453 1 124.0970904693 134.3303571429 51.8097000000
5454 2 119.6688243979 134.3303571429 48.6232000000
5455 1 120.7759172550 136.2478571429 49.5727000000
5456 2 122.9899976121 136.2478571429 48.6232000000
5457 1 124.0970904693 134.3303571429 49.5727000000
5458 2 126.3112761836 130.4953571429 52.7592000000
5459 1 127.4182636836 132.4128571429 51.8097000000
5460 2 129.6324493979 132.4128571429 52.7592000000
5461 1 130.7395422550 130.4953571429 51.8097000000
5462 2 126.3112761836 130.4953571429 48.6232000000
5463 1 127.4182636836 132.4128571429 49.5727000000
5464 2 129.6324493979 132.4128571429 48.6232000000
5465 1 130.7395422550 130.4953571429 49.5727000000
5466 2 126.3112761836 134.3303571429 52.7592000000
5467 1 127.4182636836 136.2478571429 51.8097000000
5468 2 129.6324493979 136.2478571429 52.7592000000
5469 2 126.3112761836 134.3303571429 48.6232000000
5470 1 127.4182636836 136.2478571429 49.5727000000
5471 2 129.6324493979 136.2478571429 48.6232000000
5472 1 130.7395422550 134.3303571429 49.5727000000
