# GaS D3 (adjacent M-X divacancy): 288 atoms removed = 5.0000% of total | seed 202 | d_min 8.00 A | 50/50 deck split enforced | minimize + NVT-equilibrate before the NVE velocity dump
# generated by make_vdos_structures.py v2 on 2026-07-21 07:47

5472 atoms
2 atom types

0.0000000000 132.8482969500 xlo xhi
0.0000000000 138.0600000000 ylo yhi
0.0000000000 106.0000000000 zlo zhi

Masses

1 69.7230
2 32.0600

Atoms # atomic

1 2 0.1053571429 0.1053571429 52.7592000000
2 1 1.2124500000 2.0228571429 51.8097000000
3 2 3.4265303571 2.0228571429 52.7592000000
4 1 4.5336232143 0.1053571429 51.8097000000
5 2 0.1053571429 0.1053571429 48.6232000000
6 1 1.2124500000 2.0228571429 49.5727000000
7 2 3.4265303571 2.0228571429 48.6232000000
8 1 4.5336232143 0.1053571429 49.5727000000
9 2 0.1053571429 3.9403571429 52.7592000000
10 1 1.2124500000 5.8578571429 51.8097000000
11 2 3.4265303571 5.8578571429 52.7592000000
12 1 4.5336232143 3.9403571429 51.8097000000
13 2 0.1053571429 3.9403571429 48.6232000000
14 1 1.2124500000 5.8578571429 49.5727000000
15 2 3.4265303571 5.8578571429 48.6232000000
16 1 4.5336232143 3.9403571429 49.5727000000
17 2 6.7478089286 0.1053571429 52.7592000000
18 1 7.8547964286 2.0228571429 51.8097000000
19 2 10.0689821429 2.0228571429 52.7592000000
20 1 11.1760750000 0.1053571429 51.8097000000
21 2 6.7478089286 0.1053571429 48.6232000000
22 1 7.8547964286 2.0228571429 49.5727000000
23 2 10.0689821429 2.0228571429 48.6232000000
24 1 11.1760750000 0.1053571429 49.5727000000
25 2 6.7478089286 3.9403571429 52.7592000000
26 1 7.8547964286 5.8578571429 51.8097000000
27 2 10.0689821429 5.8578571429 52.7592000000
28 1 11.1760750000 3.9403571429 51.8097000000
29 2 6.7478089286 3.9403571429 48.6232000000
30 1 7.8547964286 5.8578571429 49.5727000000
31 2 10.0689821429 5.8578571429 48.6232000000
32 2 13.3901868379 0.1053571429 52.7592000000
33 1 14.4972796950 2.0228571429 51.8097000000
34 2 16.7113600521 2.0228571429 52.7592000000
35 1 17.8184529093 0.1053571429 51.8097000000
36 2 13.3901868379 0.1053571429 48.6232000000
37 1 14.4972796950 2.0228571429 49.5727000000
38 2 16.7113600521 2.0228571429 48.6232000000
39 1 17.8184529093 0.1053571429 49.5727000000
40 2 13.3901868379 3.9403571429 52.7592000000
41 1 14.4972796950 5.8578571429 51.8097000000
42 2 16.7113600521 5.8578571429 52.7592000000
43 1 17.8184529093 3.9403571429 51.8097000000
44 1 14.4972796950 5.8578571429 49.5727000000
45 2 16.7113600521 5.8578571429 48.6232000000
46 1 17.8184529093 3.9403571429 49.5727000000
47 2 20.0326386236 0.1053571429 52.7592000000
48 1 21.1396261236 2.0228571429 51.8097000000
49 2 23.3538118379 2.0228571429 52.7592000000
50 2 20.0326386236 0.1053571429 48.6232000000
51 1 21.1396261236 2.0228571429 49.5727000000
52 2 23.3538118379 2.0228571429 48.6232000000
53 1 24.4609046950 0.1053571429 49.5727000000
54 2 20.0326386236 3.9403571429 52.7592000000
55 2 23.3538118379 5.8578571429 52.7592000000
56 1 24.4609046950 3.9403571429 51.8097000000
57 2 20.0326386236 3.9403571429 48.6232000000
58 1 21.1396261236 5.8578571429 49.5727000000
59 2 23.3538118379 5.8578571429 48.6232000000
60 1 24.4609046950 3.9403571429 49.5727000000
61 1 27.7821093900 2.0228571429 51.8097000000
62 2 29.9961897471 2.0228571429 52.7592000000
63 1 31.1032826043 0.1053571429 51.8097000000
64 2 26.6750165329 0.1053571429 48.6232000000
65 1 27.7821093900 2.0228571429 49.5727000000
66 2 29.9961897471 2.0228571429 48.6232000000
67 1 31.1032826043 0.1053571429 49.5727000000
68 2 26.6750165329 3.9403571429 52.7592000000
69 1 27.7821093900 5.8578571429 51.8097000000
70 2 29.9961897471 5.8578571429 52.7592000000
71 1 31.1032826043 3.9403571429 51.8097000000
72 2 26.6750165329 3.9403571429 48.6232000000
73 1 27.7821093900 5.8578571429 49.5727000000
74 2 29.9961897471 5.8578571429 48.6232000000
75 1 31.1032826043 3.9403571429 49.5727000000
76 2 33.3174683186 0.1053571429 52.7592000000
77 1 34.4244558186 2.0228571429 51.8097000000
78 2 36.6386415329 2.0228571429 52.7592000000
79 1 37.7457343900 0.1053571429 51.8097000000
80 2 33.3174683186 0.1053571429 48.6232000000
81 1 34.4244558186 2.0228571429 49.5727000000
82 2 36.6386415329 2.0228571429 48.6232000000
83 1 37.7457343900 0.1053571429 49.5727000000
84 2 33.3174683186 3.9403571429 52.7592000000
85 1 34.4244558186 5.8578571429 51.8097000000
86 2 36.6386415329 5.8578571429 52.7592000000
87 1 37.7457343900 3.9403571429 51.8097000000
88 2 33.3174683186 3.9403571429 48.6232000000
89 1 34.4244558186 5.8578571429 49.5727000000
90 2 36.6386415329 5.8578571429 48.6232000000
91 1 37.7457343900 3.9403571429 49.5727000000
92 2 39.9598462279 0.1053571429 52.7592000000
93 1 41.0669390850 2.0228571429 51.8097000000
94 2 43.2810194421 2.0228571429 52.7592000000
95 1 44.3881122993 0.1053571429 51.8097000000
96 2 39.9598462279 0.1053571429 48.6232000000
97 1 41.0669390850 2.0228571429 49.5727000000
98 2 43.2810194421 2.0228571429 48.6232000000
99 1 44.3881122993 0.1053571429 49.5727000000
100 2 39.9598462279 3.9403571429 52.7592000000
101 1 41.0669390850 5.8578571429 51.8097000000
102 2 43.2810194421 5.8578571429 52.7592000000
103 1 44.3881122993 3.9403571429 51.8097000000
104 2 39.9598462279 3.9403571429 48.6232000000
105 1 41.0669390850 5.8578571429 49.5727000000
106 2 43.2810194421 5.8578571429 48.6232000000
107 1 44.3881122993 3.9403571429 49.5727000000
108 2 46.6022980136 0.1053571429 52.7592000000
109 1 47.7092855136 2.0228571429 51.8097000000
110 2 49.9234712279 2.0228571429 52.7592000000
111 1 51.0305640850 0.1053571429 51.8097000000
112 2 46.6022980136 0.1053571429 48.6232000000
113 1 47.7092855136 2.0228571429 49.5727000000
114 2 49.9234712279 2.0228571429 48.6232000000
115 1 51.0305640850 0.1053571429 49.5727000000
116 2 46.6022980136 3.9403571429 52.7592000000
117 2 49.9234712279 5.8578571429 52.7592000000
118 1 51.0305640850 3.9403571429 51.8097000000
119 2 46.6022980136 3.9403571429 48.6232000000
120 1 47.7092855136 5.8578571429 49.5727000000
121 2 49.9234712279 5.8578571429 48.6232000000
122 1 51.0305640850 3.9403571429 49.5727000000
123 2 53.2446759229 0.1053571429 52.7592000000
124 1 54.3517687800 2.0228571429 51.8097000000
125 2 56.5658491371 2.0228571429 52.7592000000
126 1 57.6729419943 0.1053571429 51.8097000000
127 2 53.2446759229 0.1053571429 48.6232000000
128 1 54.3517687800 2.0228571429 49.5727000000
129 2 56.5658491371 2.0228571429 48.6232000000
130 1 57.6729419943 0.1053571429 49.5727000000
131 2 53.2446759229 3.9403571429 52.7592000000
132 1 57.6729419943 3.9403571429 51.8097000000
133 2 53.2446759229 3.9403571429 48.6232000000
134 1 54.3517687800 5.8578571429 49.5727000000
135 2 56.5658491371 5.8578571429 48.6232000000
136 1 57.6729419943 3.9403571429 49.5727000000
137 2 59.8871277086 0.1053571429 52.7592000000
138 1 60.9941152086 2.0228571429 51.8097000000
139 2 63.2083009229 2.0228571429 52.7592000000
140 1 64.3153937800 0.1053571429 51.8097000000
141 2 59.8871277086 0.1053571429 48.6232000000
142 1 60.9941152086 2.0228571429 49.5727000000
143 2 63.2083009229 2.0228571429 48.6232000000
144 1 64.3153937800 0.1053571429 49.5727000000
145 2 59.8871277086 3.9403571429 52.7592000000
146 1 60.9941152086 5.8578571429 51.8097000000
147 2 63.2083009229 5.8578571429 52.7592000000
148 1 64.3153937800 3.9403571429 51.8097000000
149 2 59.8871277086 3.9403571429 48.6232000000
150 1 60.9941152086 5.8578571429 49.5727000000
151 2 63.2083009229 5.8578571429 48.6232000000
152 1 64.3153937800 3.9403571429 49.5727000000
153 2 66.5295056179 0.1053571429 52.7592000000
154 1 67.6365984750 2.0228571429 51.8097000000
155 2 69.8506788321 2.0228571429 52.7592000000
156 1 70.9577716893 0.1053571429 51.8097000000
157 2 66.5295056179 0.1053571429 48.6232000000
158 1 67.6365984750 2.0228571429 49.5727000000
159 2 69.8506788321 2.0228571429 48.6232000000
160 1 70.9577716893 0.1053571429 49.5727000000
161 2 66.5295056179 3.9403571429 52.7592000000
162 1 67.6365984750 5.8578571429 51.8097000000
163 2 69.8506788321 5.8578571429 52.7592000000
164 1 70.9577716893 3.9403571429 51.8097000000
165 2 66.5295056179 3.9403571429 48.6232000000
166 1 67.6365984750 5.8578571429 49.5727000000
167 2 69.8506788321 5.8578571429 48.6232000000
168 1 70.9577716893 3.9403571429 49.5727000000
169 2 73.1719574036 0.1053571429 52.7592000000
170 1 74.2789449036 2.0228571429 51.8097000000
171 2 76.4931306179 2.0228571429 52.7592000000
172 1 77.6002234750 0.1053571429 51.8097000000
173 2 73.1719574036 0.1053571429 48.6232000000
174 1 74.2789449036 2.0228571429 49.5727000000
175 2 76.4931306179 2.0228571429 48.6232000000
176 1 77.6002234750 0.1053571429 49.5727000000
177 2 73.1719574036 3.9403571429 52.7592000000
178 1 74.2789449036 5.8578571429 51.8097000000
179 2 76.4931306179 5.8578571429 52.7592000000
180 1 77.6002234750 3.9403571429 51.8097000000
181 2 73.1719574036 3.9403571429 48.6232000000
182 1 74.2789449036 5.8578571429 49.5727000000
183 2 76.4931306179 5.8578571429 48.6232000000
184 1 77.6002234750 3.9403571429 49.5727000000
185 2 79.8143353129 0.1053571429 52.7592000000
186 1 80.9214281700 2.0228571429 51.8097000000
187 2 83.1355085271 2.0228571429 52.7592000000
188 1 84.2426013843 0.1053571429 51.8097000000
189 2 79.8143353129 0.1053571429 48.6232000000
190 1 80.9214281700 2.0228571429 49.5727000000
191 2 79.8143353129 3.9403571429 52.7592000000
192 1 80.9214281700 5.8578571429 51.8097000000
193 2 83.1355085271 5.8578571429 52.7592000000
194 1 84.2426013843 3.9403571429 51.8097000000
195 2 79.8143353129 3.9403571429 48.6232000000
196 1 80.9214281700 5.8578571429 49.5727000000
197 2 83.1355085271 5.8578571429 48.6232000000
198 1 84.2426013843 3.9403571429 49.5727000000
199 2 86.4567870986 0.1053571429 52.7592000000
200 1 87.5637745986 2.0228571429 51.8097000000
201 2 89.7779603129 2.0228571429 52.7592000000
202 1 90.8850531700 0.1053571429 51.8097000000
203 2 86.4567870986 0.1053571429 48.6232000000
204 1 87.5637745986 2.0228571429 49.5727000000
205 2 89.7779603129 2.0228571429 48.6232000000
206 1 90.8850531700 0.1053571429 49.5727000000
207 2 86.4567870986 3.9403571429 52.7592000000
208 1 87.5637745986 5.8578571429 51.8097000000
209 2 89.7779603129 5.8578571429 52.7592000000
210 1 90.8850531700 3.9403571429 51.8097000000
211 2 86.4567870986 3.9403571429 48.6232000000
212 1 87.5637745986 5.8578571429 49.5727000000
213 2 89.7779603129 5.8578571429 48.6232000000
214 1 90.8850531700 3.9403571429 49.5727000000
215 2 93.0991650079 0.1053571429 52.7592000000
216 1 94.2062578650 2.0228571429 51.8097000000
217 2 96.4203382221 2.0228571429 52.7592000000
218 1 97.5274310793 0.1053571429 51.8097000000
219 2 93.0991650079 0.1053571429 48.6232000000
220 1 97.5274310793 0.1053571429 49.5727000000
221 2 93.0991650079 3.9403571429 52.7592000000
222 1 94.2062578650 5.8578571429 51.8097000000
223 2 96.4203382221 5.8578571429 52.7592000000
224 1 97.5274310793 3.9403571429 51.8097000000
225 2 93.0991650079 3.9403571429 48.6232000000
226 1 94.2062578650 5.8578571429 49.5727000000
227 2 96.4203382221 5.8578571429 48.6232000000
228 1 97.5274310793 3.9403571429 49.5727000000
229 2 99.7416167936 0.1053571429 52.7592000000
230 1 100.8486042936 2.0228571429 51.8097000000
231 2 103.0627900079 2.0228571429 52.7592000000
232 1 104.1698828650 0.1053571429 51.8097000000
233 2 99.7416167936 0.1053571429 48.6232000000
234 1 100.8486042936 2.0228571429 49.5727000000
235 2 103.0627900079 2.0228571429 48.6232000000
236 1 104.1698828650 0.1053571429 49.5727000000
237 2 99.7416167936 3.9403571429 52.7592000000
238 1 100.8486042936 5.8578571429 51.8097000000
239 2 103.0627900079 5.8578571429 52.7592000000
240 2 99.7416167936 3.9403571429 48.6232000000
241 1 100.8486042936 5.8578571429 49.5727000000
242 2 103.0627900079 5.8578571429 48.6232000000
243 1 104.1698828650 3.9403571429 49.5727000000
244 2 106.3839947029 0.1053571429 52.7592000000
245 1 107.4910875600 2.0228571429 51.8097000000
246 2 109.7051679171 2.0228571429 52.7592000000
247 1 110.8122607743 0.1053571429 51.8097000000
248 2 106.3839947029 0.1053571429 48.6232000000
249 1 107.4910875600 2.0228571429 49.5727000000
250 2 109.7051679171 2.0228571429 48.6232000000
251 1 110.8122607743 0.1053571429 49.5727000000
252 1 107.4910875600 5.8578571429 51.8097000000
253 2 109.7051679171 5.8578571429 52.7592000000
254 1 110.8122607743 3.9403571429 51.8097000000
255 2 106.3839947029 3.9403571429 48.6232000000
256 1 107.4910875600 5.8578571429 49.5727000000
257 2 109.7051679171 5.8578571429 48.6232000000
258 1 110.8122607743 3.9403571429 49.5727000000
259 2 113.0264464886 0.1053571429 52.7592000000
260 1 114.1334339886 2.0228571429 51.8097000000
261 2 116.3476197029 2.0228571429 52.7592000000
262 1 117.4547125600 0.1053571429 51.8097000000
263 2 113.0264464886 0.1053571429 48.6232000000
264 1 114.1334339886 2.0228571429 49.5727000000
265 2 116.3476197029 2.0228571429 48.6232000000
266 1 117.4547125600 0.1053571429 49.5727000000
267 2 113.0264464886 3.9403571429 52.7592000000
268 1 114.1334339886 5.8578571429 51.8097000000
269 2 116.3476197029 5.8578571429 52.7592000000
270 1 117.4547125600 3.9403571429 51.8097000000
271 2 113.0264464886 3.9403571429 48.6232000000
272 1 114.1334339886 5.8578571429 49.5727000000
273 2 116.3476197029 5.8578571429 48.6232000000
274 2 119.6688243979 0.1053571429 52.7592000000
275 1 120.7759172550 2.0228571429 51.8097000000
276 2 122.9899976121 2.0228571429 52.7592000000
277 1 124.0970904693 0.1053571429 51.8097000000
278 2 119.6688243979 0.1053571429 48.6232000000
279 1 120.7759172550 2.0228571429 49.5727000000
280 2 122.9899976121 2.0228571429 48.6232000000
281 1 124.0970904693 0.1053571429 49.5727000000
282 2 119.6688243979 3.9403571429 52.7592000000
283 1 120.7759172550 5.8578571429 51.8097000000
284 2 122.9899976121 5.8578571429 52.7592000000
285 1 124.0970904693 3.9403571429 51.8097000000
286 1 120.7759172550 5.8578571429 49.5727000000
287 2 122.9899976121 5.8578571429 48.6232000000
288 1 124.0970904693 3.9403571429 49.5727000000
289 2 126.3112761836 0.1053571429 52.7592000000
290 1 127.4182636836 2.0228571429 51.8097000000
291 2 129.6324493979 2.0228571429 52.7592000000
292 1 130.7395422550 0.1053571429 51.8097000000
293 2 126.3112761836 0.1053571429 48.6232000000
294 1 127.4182636836 2.0228571429 49.5727000000
295 2 129.6324493979 2.0228571429 48.6232000000
296 1 130.7395422550 0.1053571429 49.5727000000
297 2 126.3112761836 3.9403571429 52.7592000000
298 1 127.4182636836 5.8578571429 51.8097000000
299 2 129.6324493979 5.8578571429 52.7592000000
300 1 130.7395422550 3.9403571429 51.8097000000
301 2 126.3112761836 3.9403571429 48.6232000000
302 1 127.4182636836 5.8578571429 49.5727000000
303 2 129.6324493979 5.8578571429 48.6232000000
304 1 130.7395422550 3.9403571429 49.5727000000
305 2 0.1053571429 7.7753571429 52.7592000000
306 1 4.5336232143 7.7753571429 51.8097000000
307 1 1.2124500000 9.6928571429 49.5727000000
308 2 3.4265303571 9.6928571429 48.6232000000
309 1 4.5336232143 7.7753571429 49.5727000000
310 2 0.1053571429 11.6103571429 52.7592000000
311 1 1.2124500000 13.5278571429 51.8097000000
312 2 3.4265303571 13.5278571429 52.7592000000
313 1 4.5336232143 11.6103571429 51.8097000000
314 2 0.1053571429 11.6103571429 48.6232000000
315 1 1.2124500000 13.5278571429 49.5727000000
316 2 3.4265303571 13.5278571429 48.6232000000
317 1 4.5336232143 11.6103571429 49.5727000000
318 2 6.7478089286 7.7753571429 52.7592000000
319 1 7.8547964286 9.6928571429 51.8097000000
320 2 10.0689821429 9.6928571429 52.7592000000
321 1 11.1760750000 7.7753571429 51.8097000000
322 2 6.7478089286 7.7753571429 48.6232000000
323 1 7.8547964286 9.6928571429 49.5727000000
324 2 10.0689821429 9.6928571429 48.6232000000
325 1 11.1760750000 7.7753571429 49.5727000000
326 2 6.7478089286 11.6103571429 52.7592000000
327 1 7.8547964286 13.5278571429 51.8097000000
328 2 10.0689821429 13.5278571429 52.7592000000
329 1 11.1760750000 11.6103571429 51.8097000000
330 2 6.7478089286 11.6103571429 48.6232000000
331 1 7.8547964286 13.5278571429 49.5727000000
332 2 10.0689821429 13.5278571429 48.6232000000
333 1 11.1760750000 11.6103571429 49.5727000000
334 2 13.3901868379 7.7753571429 52.7592000000
335 1 14.4972796950 9.6928571429 51.8097000000
336 2 16.7113600521 9.6928571429 52.7592000000
337 1 17.8184529093 7.7753571429 51.8097000000
338 2 13.3901868379 7.7753571429 48.6232000000
339 1 14.4972796950 9.6928571429 49.5727000000
340 2 16.7113600521 9.6928571429 48.6232000000
341 1 17.8184529093 7.7753571429 49.5727000000
342 2 13.3901868379 11.6103571429 52.7592000000
343 1 14.4972796950 13.5278571429 51.8097000000
344 2 16.7113600521 13.5278571429 52.7592000000
345 1 17.8184529093 11.6103571429 51.8097000000
346 2 13.3901868379 11.6103571429 48.6232000000
347 1 17.8184529093 11.6103571429 49.5727000000
348 1 21.1396261236 9.6928571429 51.8097000000
349 2 23.3538118379 9.6928571429 52.7592000000
350 1 24.4609046950 7.7753571429 51.8097000000
351 2 20.0326386236 7.7753571429 48.6232000000
352 1 21.1396261236 9.6928571429 49.5727000000
353 2 23.3538118379 9.6928571429 48.6232000000
354 1 24.4609046950 7.7753571429 49.5727000000
355 2 20.0326386236 11.6103571429 52.7592000000
356 1 21.1396261236 13.5278571429 51.8097000000
357 2 23.3538118379 13.5278571429 52.7592000000
358 1 24.4609046950 11.6103571429 51.8097000000
359 2 20.0326386236 11.6103571429 48.6232000000
360 1 21.1396261236 13.5278571429 49.5727000000
361 2 23.3538118379 13.5278571429 48.6232000000
362 1 24.4609046950 11.6103571429 49.5727000000
363 2 26.6750165329 7.7753571429 52.7592000000
364 1 27.7821093900 9.6928571429 51.8097000000
365 2 26.6750165329 7.7753571429 48.6232000000
366 1 27.7821093900 9.6928571429 49.5727000000
367 2 29.9961897471 9.6928571429 48.6232000000
368 1 31.1032826043 7.7753571429 49.5727000000
369 2 26.6750165329 11.6103571429 52.7592000000
370 1 27.7821093900 13.5278571429 51.8097000000
371 2 29.9961897471 13.5278571429 52.7592000000
372 1 31.1032826043 11.6103571429 51.8097000000
373 2 26.6750165329 11.6103571429 48.6232000000
374 1 27.7821093900 13.5278571429 49.5727000000
375 2 29.9961897471 13.5278571429 48.6232000000
376 1 31.1032826043 11.6103571429 49.5727000000
377 2 33.3174683186 7.7753571429 52.7592000000
378 1 34.4244558186 9.6928571429 51.8097000000
379 2 36.6386415329 9.6928571429 52.7592000000
380 2 33.3174683186 7.7753571429 48.6232000000
381 1 34.4244558186 9.6928571429 49.5727000000
382 2 36.6386415329 9.6928571429 48.6232000000
383 1 37.7457343900 7.7753571429 49.5727000000
384 2 33.3174683186 11.6103571429 52.7592000000
385 1 34.4244558186 13.5278571429 51.8097000000
386 2 36.6386415329 13.5278571429 52.7592000000
387 1 37.7457343900 11.6103571429 51.8097000000
388 2 33.3174683186 11.6103571429 48.6232000000
389 1 34.4244558186 13.5278571429 49.5727000000
390 2 36.6386415329 13.5278571429 48.6232000000
391 1 37.7457343900 11.6103571429 49.5727000000
392 1 41.0669390850 9.6928571429 51.8097000000
393 2 43.2810194421 9.6928571429 52.7592000000
394 1 44.3881122993 7.7753571429 51.8097000000
395 2 39.9598462279 7.7753571429 48.6232000000
396 1 41.0669390850 9.6928571429 49.5727000000
397 2 43.2810194421 9.6928571429 48.6232000000
398 1 44.3881122993 7.7753571429 49.5727000000
399 2 39.9598462279 11.6103571429 52.7592000000
400 1 41.0669390850 13.5278571429 51.8097000000
401 2 43.2810194421 13.5278571429 52.7592000000
402 1 44.3881122993 11.6103571429 51.8097000000
403 2 39.9598462279 11.6103571429 48.6232000000
404 1 41.0669390850 13.5278571429 49.5727000000
405 2 43.2810194421 13.5278571429 48.6232000000
406 1 44.3881122993 11.6103571429 49.5727000000
407 1 47.7092855136 9.6928571429 51.8097000000
408 2 49.9234712279 9.6928571429 52.7592000000
409 1 51.0305640850 7.7753571429 51.8097000000
410 2 46.6022980136 7.7753571429 48.6232000000
411 1 47.7092855136 9.6928571429 49.5727000000
412 2 49.9234712279 9.6928571429 48.6232000000
413 1 51.0305640850 7.7753571429 49.5727000000
414 2 46.6022980136 11.6103571429 52.7592000000
415 1 47.7092855136 13.5278571429 51.8097000000
416 2 49.9234712279 13.5278571429 52.7592000000
417 1 51.0305640850 11.6103571429 51.8097000000
418 2 46.6022980136 11.6103571429 48.6232000000
419 1 47.7092855136 13.5278571429 49.5727000000
420 2 49.9234712279 13.5278571429 48.6232000000
421 1 51.0305640850 11.6103571429 49.5727000000
422 2 53.2446759229 7.7753571429 52.7592000000
423 1 54.3517687800 9.6928571429 51.8097000000
424 2 56.5658491371 9.6928571429 52.7592000000
425 1 57.6729419943 7.7753571429 51.8097000000
426 2 53.2446759229 7.7753571429 48.6232000000
427 1 54.3517687800 9.6928571429 49.5727000000
428 2 56.5658491371 9.6928571429 48.6232000000
429 1 57.6729419943 7.7753571429 49.5727000000
430 2 53.2446759229 11.6103571429 52.7592000000
431 1 54.3517687800 13.5278571429 51.8097000000
432 2 56.5658491371 13.5278571429 52.7592000000
433 1 57.6729419943 11.6103571429 51.8097000000
434 2 53.2446759229 11.6103571429 48.6232000000
435 1 54.3517687800 13.5278571429 49.5727000000
436 2 56.5658491371 13.5278571429 48.6232000000
437 1 57.6729419943 11.6103571429 49.5727000000
438 2 59.8871277086 7.7753571429 52.7592000000
439 1 60.9941152086 9.6928571429 51.8097000000
440 2 63.2083009229 9.6928571429 52.7592000000
441 1 64.3153937800 7.7753571429 51.8097000000
442 2 59.8871277086 7.7753571429 48.6232000000
443 1 60.9941152086 9.6928571429 49.5727000000
444 2 63.2083009229 9.6928571429 48.6232000000
445 1 64.3153937800 7.7753571429 49.5727000000
446 2 59.8871277086 11.6103571429 52.7592000000
447 1 60.9941152086 13.5278571429 51.8097000000
448 2 63.2083009229 13.5278571429 52.7592000000
449 1 64.3153937800 11.6103571429 51.8097000000
450 2 59.8871277086 11.6103571429 48.6232000000
451 1 60.9941152086 13.5278571429 49.5727000000
452 2 63.2083009229 13.5278571429 48.6232000000
453 1 64.3153937800 11.6103571429 49.5727000000
454 2 66.5295056179 7.7753571429 52.7592000000
455 1 67.6365984750 9.6928571429 51.8097000000
456 2 69.8506788321 9.6928571429 52.7592000000
457 1 70.9577716893 7.7753571429 51.8097000000
458 2 66.5295056179 7.7753571429 48.6232000000
459 1 67.6365984750 9.6928571429 49.5727000000
460 2 69.8506788321 9.6928571429 48.6232000000
461 1 70.9577716893 7.7753571429 49.5727000000
462 2 66.5295056179 11.6103571429 52.7592000000
463 1 67.6365984750 13.5278571429 51.8097000000
464 2 69.8506788321 13.5278571429 52.7592000000
465 1 70.9577716893 11.6103571429 51.8097000000
466 2 66.5295056179 11.6103571429 48.6232000000
467 1 67.6365984750 13.5278571429 49.5727000000
468 2 69.8506788321 13.5278571429 48.6232000000
469 1 70.9577716893 11.6103571429 49.5727000000
470 2 73.1719574036 7.7753571429 52.7592000000
471 1 74.2789449036 9.6928571429 51.8097000000
472 2 76.4931306179 9.6928571429 52.7592000000
473 1 77.6002234750 7.7753571429 51.8097000000
474 2 73.1719574036 7.7753571429 48.6232000000
475 1 74.2789449036 9.6928571429 49.5727000000
476 2 76.4931306179 9.6928571429 48.6232000000
477 2 73.1719574036 11.6103571429 52.7592000000
478 1 74.2789449036 13.5278571429 51.8097000000
479 2 76.4931306179 13.5278571429 52.7592000000
480 1 77.6002234750 11.6103571429 51.8097000000
481 2 73.1719574036 11.6103571429 48.6232000000
482 1 74.2789449036 13.5278571429 49.5727000000
483 2 76.4931306179 13.5278571429 48.6232000000
484 1 77.6002234750 11.6103571429 49.5727000000
485 2 79.8143353129 7.7753571429 52.7592000000
486 1 80.9214281700 9.6928571429 51.8097000000
487 2 83.1355085271 9.6928571429 52.7592000000
488 1 84.2426013843 7.7753571429 51.8097000000
489 1 80.9214281700 9.6928571429 49.5727000000
490 2 83.1355085271 9.6928571429 48.6232000000
491 1 84.2426013843 7.7753571429 49.5727000000
492 2 79.8143353129 11.6103571429 52.7592000000
493 1 80.9214281700 13.5278571429 51.8097000000
494 2 83.1355085271 13.5278571429 52.7592000000
495 1 84.2426013843 11.6103571429 51.8097000000
496 2 79.8143353129 11.6103571429 48.6232000000
497 1 80.9214281700 13.5278571429 49.5727000000
498 2 83.1355085271 13.5278571429 48.6232000000
499 1 84.2426013843 11.6103571429 49.5727000000
500 2 89.7779603129 9.6928571429 52.7592000000
501 1 90.8850531700 7.7753571429 51.8097000000
502 2 86.4567870986 7.7753571429 48.6232000000
503 1 87.5637745986 9.6928571429 49.5727000000
504 2 89.7779603129 9.6928571429 48.6232000000
505 1 90.8850531700 7.7753571429 49.5727000000
506 2 86.4567870986 11.6103571429 52.7592000000
507 1 87.5637745986 13.5278571429 51.8097000000
508 2 89.7779603129 13.5278571429 52.7592000000
509 1 90.8850531700 11.6103571429 51.8097000000
510 2 86.4567870986 11.6103571429 48.6232000000
511 1 87.5637745986 13.5278571429 49.5727000000
512 2 89.7779603129 13.5278571429 48.6232000000
513 1 90.8850531700 11.6103571429 49.5727000000
514 2 93.0991650079 7.7753571429 52.7592000000
515 1 94.2062578650 9.6928571429 51.8097000000
516 2 96.4203382221 9.6928571429 52.7592000000
517 1 97.5274310793 7.7753571429 51.8097000000
518 2 93.0991650079 7.7753571429 48.6232000000
519 1 94.2062578650 9.6928571429 49.5727000000
520 2 96.4203382221 9.6928571429 48.6232000000
521 1 97.5274310793 7.7753571429 49.5727000000
522 2 93.0991650079 11.6103571429 52.7592000000
523 1 94.2062578650 13.5278571429 51.8097000000
524 2 96.4203382221 13.5278571429 52.7592000000
525 1 97.5274310793 11.6103571429 51.8097000000
526 2 93.0991650079 11.6103571429 48.6232000000
527 1 94.2062578650 13.5278571429 49.5727000000
528 2 96.4203382221 13.5278571429 48.6232000000
529 1 97.5274310793 11.6103571429 49.5727000000
530 2 99.7416167936 7.7753571429 52.7592000000
531 1 100.8486042936 9.6928571429 51.8097000000
532 2 103.0627900079 9.6928571429 52.7592000000
533 1 104.1698828650 7.7753571429 51.8097000000
534 2 99.7416167936 7.7753571429 48.6232000000
535 1 100.8486042936 9.6928571429 49.5727000000
536 2 103.0627900079 9.6928571429 48.6232000000
537 1 104.1698828650 7.7753571429 49.5727000000
538 2 99.7416167936 11.6103571429 52.7592000000
539 1 100.8486042936 13.5278571429 51.8097000000
540 2 103.0627900079 13.5278571429 52.7592000000
541 1 104.1698828650 11.6103571429 51.8097000000
542 2 99.7416167936 11.6103571429 48.6232000000
543 1 100.8486042936 13.5278571429 49.5727000000
544 2 103.0627900079 13.5278571429 48.6232000000
545 1 104.1698828650 11.6103571429 49.5727000000
546 2 106.3839947029 7.7753571429 52.7592000000
547 1 107.4910875600 9.6928571429 51.8097000000
548 2 109.7051679171 9.6928571429 52.7592000000
549 1 110.8122607743 7.7753571429 51.8097000000
550 2 106.3839947029 7.7753571429 48.6232000000
551 1 107.4910875600 9.6928571429 49.5727000000
552 2 109.7051679171 9.6928571429 48.6232000000
553 1 110.8122607743 7.7753571429 49.5727000000
554 2 106.3839947029 11.6103571429 52.7592000000
555 1 107.4910875600 13.5278571429 51.8097000000
556 2 109.7051679171 13.5278571429 52.7592000000
557 1 110.8122607743 11.6103571429 51.8097000000
558 2 106.3839947029 11.6103571429 48.6232000000
559 1 107.4910875600 13.5278571429 49.5727000000
560 2 109.7051679171 13.5278571429 48.6232000000
561 1 110.8122607743 11.6103571429 49.5727000000
562 2 113.0264464886 7.7753571429 52.7592000000
563 1 114.1334339886 9.6928571429 51.8097000000
564 2 116.3476197029 9.6928571429 52.7592000000
565 1 117.4547125600 7.7753571429 51.8097000000
566 2 113.0264464886 7.7753571429 48.6232000000
567 1 114.1334339886 9.6928571429 49.5727000000
568 2 116.3476197029 9.6928571429 48.6232000000
569 1 117.4547125600 7.7753571429 49.5727000000
570 2 113.0264464886 11.6103571429 52.7592000000
571 1 114.1334339886 13.5278571429 51.8097000000
572 2 116.3476197029 13.5278571429 52.7592000000
573 1 117.4547125600 11.6103571429 51.8097000000
574 2 113.0264464886 11.6103571429 48.6232000000
575 1 114.1334339886 13.5278571429 49.5727000000
576 2 116.3476197029 13.5278571429 48.6232000000
577 1 117.4547125600 11.6103571429 49.5727000000
578 2 119.6688243979 7.7753571429 52.7592000000
579 1 120.7759172550 9.6928571429 51.8097000000
580 2 122.9899976121 9.6928571429 52.7592000000
581 1 124.0970904693 7.7753571429 51.8097000000
582 2 119.6688243979 7.7753571429 48.6232000000
583 1 120.7759172550 9.6928571429 49.5727000000
584 2 122.9899976121 9.6928571429 48.6232000000
585 1 124.0970904693 7.7753571429 49.5727000000
586 2 119.6688243979 11.6103571429 52.7592000000
587 1 120.7759172550 13.5278571429 51.8097000000
588 2 122.9899976121 13.5278571429 52.7592000000
589 1 124.0970904693 11.6103571429 51.8097000000
590 2 119.6688243979 11.6103571429 48.6232000000
591 1 120.7759172550 13.5278571429 49.5727000000
592 2 122.9899976121 13.5278571429 48.6232000000
593 1 124.0970904693 11.6103571429 49.5727000000
594 2 126.3112761836 7.7753571429 52.7592000000
595 1 127.4182636836 9.6928571429 51.8097000000
596 2 129.6324493979 9.6928571429 52.7592000000
597 1 130.7395422550 7.7753571429 51.8097000000
598 2 126.3112761836 7.7753571429 48.6232000000
599 1 127.4182636836 9.6928571429 49.5727000000
600 2 129.6324493979 9.6928571429 48.6232000000
601 2 126.3112761836 11.6103571429 52.7592000000
602 1 127.4182636836 13.5278571429 51.8097000000
603 2 129.6324493979 13.5278571429 52.7592000000
604 1 130.7395422550 11.6103571429 51.8097000000
605 2 126.3112761836 11.6103571429 48.6232000000
606 1 127.4182636836 13.5278571429 49.5727000000
607 2 129.6324493979 13.5278571429 48.6232000000
608 1 130.7395422550 11.6103571429 49.5727000000
609 2 0.1053571429 15.4453571429 52.7592000000
610 1 1.2124500000 17.3628571429 51.8097000000
611 2 3.4265303571 17.3628571429 52.7592000000
612 1 4.5336232143 15.4453571429 51.8097000000
613 2 0.1053571429 15.4453571429 48.6232000000
614 1 1.2124500000 17.3628571429 49.5727000000
615 2 3.4265303571 17.3628571429 48.6232000000
616 1 4.5336232143 15.4453571429 49.5727000000
617 2 0.1053571429 19.2803571429 52.7592000000
618 1 1.2124500000 21.1978571429 51.8097000000
619 2 3.4265303571 21.1978571429 52.7592000000
620 1 4.5336232143 19.2803571429 51.8097000000
621 2 0.1053571429 19.2803571429 48.6232000000
622 1 1.2124500000 21.1978571429 49.5727000000
623 2 3.4265303571 21.1978571429 48.6232000000
624 1 4.5336232143 19.2803571429 49.5727000000
625 2 6.7478089286 15.4453571429 52.7592000000
626 1 7.8547964286 17.3628571429 51.8097000000
627 2 10.0689821429 17.3628571429 52.7592000000
628 1 11.1760750000 15.4453571429 51.8097000000
629 2 6.7478089286 15.4453571429 48.6232000000
630 1 7.8547964286 17.3628571429 49.5727000000
631 2 10.0689821429 17.3628571429 48.6232000000
632 1 11.1760750000 15.4453571429 49.5727000000
633 2 6.7478089286 19.2803571429 52.7592000000
634 1 7.8547964286 21.1978571429 51.8097000000
635 2 10.0689821429 21.1978571429 52.7592000000
636 1 11.1760750000 19.2803571429 51.8097000000
637 2 6.7478089286 19.2803571429 48.6232000000
638 1 7.8547964286 21.1978571429 49.5727000000
639 2 10.0689821429 21.1978571429 48.6232000000
640 1 11.1760750000 19.2803571429 49.5727000000
641 2 13.3901868379 15.4453571429 52.7592000000
642 1 14.4972796950 17.3628571429 51.8097000000
643 2 16.7113600521 17.3628571429 52.7592000000
644 1 17.8184529093 15.4453571429 51.8097000000
645 2 13.3901868379 15.4453571429 48.6232000000
646 1 14.4972796950 17.3628571429 49.5727000000
647 2 16.7113600521 17.3628571429 48.6232000000
648 1 17.8184529093 15.4453571429 49.5727000000
649 2 13.3901868379 19.2803571429 52.7592000000
650 1 14.4972796950 21.1978571429 51.8097000000
651 2 16.7113600521 21.1978571429 52.7592000000
652 1 17.8184529093 19.2803571429 51.8097000000
653 2 13.3901868379 19.2803571429 48.6232000000
654 1 14.4972796950 21.1978571429 49.5727000000
655 2 16.7113600521 21.1978571429 48.6232000000
656 1 17.8184529093 19.2803571429 49.5727000000
657 2 20.0326386236 15.4453571429 52.7592000000
658 1 21.1396261236 17.3628571429 51.8097000000
659 2 23.3538118379 17.3628571429 52.7592000000
660 2 20.0326386236 15.4453571429 48.6232000000
661 1 21.1396261236 17.3628571429 49.5727000000
662 2 23.3538118379 17.3628571429 48.6232000000
663 1 24.4609046950 15.4453571429 49.5727000000
664 2 20.0326386236 19.2803571429 52.7592000000
665 1 21.1396261236 21.1978571429 51.8097000000
666 2 23.3538118379 21.1978571429 52.7592000000
667 1 24.4609046950 19.2803571429 51.8097000000
668 2 20.0326386236 19.2803571429 48.6232000000
669 1 21.1396261236 21.1978571429 49.5727000000
670 2 23.3538118379 21.1978571429 48.6232000000
671 1 24.4609046950 19.2803571429 49.5727000000
672 1 27.7821093900 17.3628571429 51.8097000000
673 2 29.9961897471 17.3628571429 52.7592000000
674 1 31.1032826043 15.4453571429 51.8097000000
675 2 26.6750165329 15.4453571429 48.6232000000
676 1 27.7821093900 17.3628571429 49.5727000000
677 2 29.9961897471 17.3628571429 48.6232000000
678 1 31.1032826043 15.4453571429 49.5727000000
679 2 26.6750165329 19.2803571429 52.7592000000
680 1 27.7821093900 21.1978571429 51.8097000000
681 2 29.9961897471 21.1978571429 52.7592000000
682 1 31.1032826043 19.2803571429 51.8097000000
683 2 26.6750165329 19.2803571429 48.6232000000
684 1 27.7821093900 21.1978571429 49.5727000000
685 2 29.9961897471 21.1978571429 48.6232000000
686 1 31.1032826043 19.2803571429 49.5727000000
687 2 33.3174683186 15.4453571429 52.7592000000
688 1 34.4244558186 17.3628571429 51.8097000000
689 2 36.6386415329 17.3628571429 52.7592000000
690 1 37.7457343900 15.4453571429 51.8097000000
691 2 33.3174683186 15.4453571429 48.6232000000
692 1 34.4244558186 17.3628571429 49.5727000000
693 2 36.6386415329 17.3628571429 48.6232000000
694 1 37.7457343900 15.4453571429 49.5727000000
695 2 33.3174683186 19.2803571429 52.7592000000
696 1 34.4244558186 21.1978571429 51.8097000000
697 2 36.6386415329 21.1978571429 52.7592000000
698 1 37.7457343900 19.2803571429 51.8097000000
699 2 33.3174683186 19.2803571429 48.6232000000
700 1 34.4244558186 21.1978571429 49.5727000000
701 2 36.6386415329 21.1978571429 48.6232000000
702 1 37.7457343900 19.2803571429 49.5727000000
703 2 39.9598462279 15.4453571429 52.7592000000
704 1 44.3881122993 15.4453571429 51.8097000000
705 2 39.9598462279 15.4453571429 48.6232000000
706 1 41.0669390850 17.3628571429 49.5727000000
707 2 43.2810194421 17.3628571429 48.6232000000
708 1 44.3881122993 15.4453571429 49.5727000000
709 2 39.9598462279 19.2803571429 52.7592000000
710 1 41.0669390850 21.1978571429 51.8097000000
711 2 43.2810194421 21.1978571429 52.7592000000
712 1 44.3881122993 19.2803571429 51.8097000000
713 2 39.9598462279 19.2803571429 48.6232000000
714 1 41.0669390850 21.1978571429 49.5727000000
715 2 43.2810194421 21.1978571429 48.6232000000
716 1 44.3881122993 19.2803571429 49.5727000000
717 2 46.6022980136 15.4453571429 52.7592000000
718 1 47.7092855136 17.3628571429 51.8097000000
719 2 49.9234712279 17.3628571429 52.7592000000
720 1 51.0305640850 15.4453571429 51.8097000000
721 2 46.6022980136 15.4453571429 48.6232000000
722 1 47.7092855136 17.3628571429 49.5727000000
723 2 49.9234712279 17.3628571429 48.6232000000
724 1 51.0305640850 15.4453571429 49.5727000000
725 2 46.6022980136 19.2803571429 52.7592000000
726 1 47.7092855136 21.1978571429 51.8097000000
727 2 49.9234712279 21.1978571429 52.7592000000
728 1 51.0305640850 19.2803571429 51.8097000000
729 2 46.6022980136 19.2803571429 48.6232000000
730 1 47.7092855136 21.1978571429 49.5727000000
731 2 49.9234712279 21.1978571429 48.6232000000
732 1 51.0305640850 19.2803571429 49.5727000000
733 2 53.2446759229 15.4453571429 52.7592000000
734 1 54.3517687800 17.3628571429 51.8097000000
735 2 56.5658491371 17.3628571429 52.7592000000
736 1 57.6729419943 15.4453571429 51.8097000000
737 2 53.2446759229 15.4453571429 48.6232000000
738 1 54.3517687800 17.3628571429 49.5727000000
739 2 56.5658491371 17.3628571429 48.6232000000
740 1 57.6729419943 15.4453571429 49.5727000000
741 2 53.2446759229 19.2803571429 52.7592000000
742 1 54.3517687800 21.1978571429 51.8097000000
743 2 56.5658491371 21.1978571429 52.7592000000
744 1 57.6729419943 19.2803571429 51.8097000000
745 2 53.2446759229 19.2803571429 48.6232000000
746 1 54.3517687800 21.1978571429 49.5727000000
747 2 56.5658491371 21.1978571429 48.6232000000
748 1 57.6729419943 19.2803571429 49.5727000000
749 2 63.2083009229 17.3628571429 52.7592000000
750 1 64.3153937800 15.4453571429 51.8097000000
751 2 59.8871277086 15.4453571429 48.6232000000
752 1 60.9941152086 17.3628571429 49.5727000000
753 2 63.2083009229 17.3628571429 48.6232000000
754 1 64.3153937800 15.4453571429 49.5727000000
755 2 59.8871277086 19.2803571429 52.7592000000
756 1 60.9941152086 21.1978571429 51.8097000000
757 2 63.2083009229 21.1978571429 52.7592000000
758 1 64.3153937800 19.2803571429 51.8097000000
759 2 59.8871277086 19.2803571429 48.6232000000
760 1 60.9941152086 21.1978571429 49.5727000000
761 2 63.2083009229 21.1978571429 48.6232000000
762 1 64.3153937800 19.2803571429 49.5727000000
763 2 66.5295056179 15.4453571429 52.7592000000
764 1 67.6365984750 17.3628571429 51.8097000000
765 2 69.8506788321 17.3628571429 52.7592000000
766 1 70.9577716893 15.4453571429 51.8097000000
767 2 66.5295056179 15.4453571429 48.6232000000
768 1 67.6365984750 17.3628571429 49.5727000000
769 2 69.8506788321 17.3628571429 48.6232000000
770 1 70.9577716893 15.4453571429 49.5727000000
771 2 66.5295056179 19.2803571429 52.7592000000
772 1 67.6365984750 21.1978571429 51.8097000000
773 2 69.8506788321 21.1978571429 52.7592000000
774 1 70.9577716893 19.2803571429 51.8097000000
775 2 66.5295056179 19.2803571429 48.6232000000
776 1 67.6365984750 21.1978571429 49.5727000000
777 2 69.8506788321 21.1978571429 48.6232000000
778 1 70.9577716893 19.2803571429 49.5727000000
779 2 73.1719574036 15.4453571429 52.7592000000
780 1 74.2789449036 17.3628571429 51.8097000000
781 2 76.4931306179 17.3628571429 52.7592000000
782 1 77.6002234750 15.4453571429 51.8097000000
783 2 73.1719574036 15.4453571429 48.6232000000
784 1 74.2789449036 17.3628571429 49.5727000000
785 2 76.4931306179 17.3628571429 48.6232000000
786 1 77.6002234750 15.4453571429 49.5727000000
787 2 73.1719574036 19.2803571429 52.7592000000
788 1 74.2789449036 21.1978571429 51.8097000000
789 2 76.4931306179 21.1978571429 52.7592000000
790 1 77.6002234750 19.2803571429 51.8097000000
791 2 73.1719574036 19.2803571429 48.6232000000
792 1 74.2789449036 21.1978571429 49.5727000000
793 2 76.4931306179 21.1978571429 48.6232000000
794 1 77.6002234750 19.2803571429 49.5727000000
795 2 79.8143353129 15.4453571429 52.7592000000
796 1 80.9214281700 17.3628571429 51.8097000000
797 2 83.1355085271 17.3628571429 52.7592000000
798 1 84.2426013843 15.4453571429 51.8097000000
799 2 79.8143353129 15.4453571429 48.6232000000
800 1 80.9214281700 17.3628571429 49.5727000000
801 2 79.8143353129 19.2803571429 52.7592000000
802 1 80.9214281700 21.1978571429 51.8097000000
803 2 83.1355085271 21.1978571429 52.7592000000
804 1 84.2426013843 19.2803571429 51.8097000000
805 2 79.8143353129 19.2803571429 48.6232000000
806 1 80.9214281700 21.1978571429 49.5727000000
807 2 83.1355085271 21.1978571429 48.6232000000
808 1 84.2426013843 19.2803571429 49.5727000000
809 2 86.4567870986 15.4453571429 52.7592000000
810 1 87.5637745986 17.3628571429 51.8097000000
811 2 89.7779603129 17.3628571429 52.7592000000
812 1 90.8850531700 15.4453571429 51.8097000000
813 2 86.4567870986 15.4453571429 48.6232000000
814 1 87.5637745986 17.3628571429 49.5727000000
815 2 89.7779603129 17.3628571429 48.6232000000
816 2 86.4567870986 19.2803571429 52.7592000000
817 1 87.5637745986 21.1978571429 51.8097000000
818 2 89.7779603129 21.1978571429 52.7592000000
819 1 90.8850531700 19.2803571429 51.8097000000
820 2 86.4567870986 19.2803571429 48.6232000000
821 1 87.5637745986 21.1978571429 49.5727000000
822 2 89.7779603129 21.1978571429 48.6232000000
823 1 90.8850531700 19.2803571429 49.5727000000
824 2 93.0991650079 15.4453571429 52.7592000000
825 1 94.2062578650 17.3628571429 51.8097000000
826 2 96.4203382221 17.3628571429 52.7592000000
827 1 97.5274310793 15.4453571429 51.8097000000
828 1 94.2062578650 17.3628571429 49.5727000000
829 2 96.4203382221 17.3628571429 48.6232000000
830 1 97.5274310793 15.4453571429 49.5727000000
831 2 93.0991650079 19.2803571429 52.7592000000
832 1 94.2062578650 21.1978571429 51.8097000000
833 2 96.4203382221 21.1978571429 52.7592000000
834 1 97.5274310793 19.2803571429 51.8097000000
835 2 93.0991650079 19.2803571429 48.6232000000
836 1 94.2062578650 21.1978571429 49.5727000000
837 2 96.4203382221 21.1978571429 48.6232000000
838 1 97.5274310793 19.2803571429 49.5727000000
839 2 103.0627900079 17.3628571429 52.7592000000
840 1 104.1698828650 15.4453571429 51.8097000000
841 2 99.7416167936 15.4453571429 48.6232000000
842 1 100.8486042936 17.3628571429 49.5727000000
843 2 103.0627900079 17.3628571429 48.6232000000
844 1 104.1698828650 15.4453571429 49.5727000000
845 2 99.7416167936 19.2803571429 52.7592000000
846 1 100.8486042936 21.1978571429 51.8097000000
847 2 103.0627900079 21.1978571429 52.7592000000
848 1 104.1698828650 19.2803571429 51.8097000000
849 2 99.7416167936 19.2803571429 48.6232000000
850 1 100.8486042936 21.1978571429 49.5727000000
851 2 103.0627900079 21.1978571429 48.6232000000
852 1 104.1698828650 19.2803571429 49.5727000000
853 2 106.3839947029 15.4453571429 52.7592000000
854 1 107.4910875600 17.3628571429 51.8097000000
855 2 109.7051679171 17.3628571429 52.7592000000
856 1 110.8122607743 15.4453571429 51.8097000000
857 2 106.3839947029 15.4453571429 48.6232000000
858 1 107.4910875600 17.3628571429 49.5727000000
859 2 106.3839947029 19.2803571429 52.7592000000
860 1 107.4910875600 21.1978571429 51.8097000000
861 2 109.7051679171 21.1978571429 52.7592000000
862 1 110.8122607743 19.2803571429 51.8097000000
863 2 106.3839947029 19.2803571429 48.6232000000
864 1 107.4910875600 21.1978571429 49.5727000000
865 2 109.7051679171 21.1978571429 48.6232000000
866 1 110.8122607743 19.2803571429 49.5727000000
867 2 113.0264464886 15.4453571429 52.7592000000
868 1 114.1334339886 17.3628571429 51.8097000000
869 2 116.3476197029 17.3628571429 52.7592000000
870 1 117.4547125600 15.4453571429 51.8097000000
871 2 113.0264464886 15.4453571429 48.6232000000
872 1 114.1334339886 17.3628571429 49.5727000000
873 2 116.3476197029 17.3628571429 48.6232000000
874 2 113.0264464886 19.2803571429 52.7592000000
875 1 114.1334339886 21.1978571429 51.8097000000
876 2 116.3476197029 21.1978571429 52.7592000000
877 1 117.4547125600 19.2803571429 51.8097000000
878 2 113.0264464886 19.2803571429 48.6232000000
879 1 114.1334339886 21.1978571429 49.5727000000
880 2 116.3476197029 21.1978571429 48.6232000000
881 1 117.4547125600 19.2803571429 49.5727000000
882 2 119.6688243979 15.4453571429 52.7592000000
883 1 120.7759172550 17.3628571429 51.8097000000
884 2 122.9899976121 17.3628571429 52.7592000000
885 1 124.0970904693 15.4453571429 51.8097000000
886 1 120.7759172550 17.3628571429 49.5727000000
887 2 122.9899976121 17.3628571429 48.6232000000
888 1 124.0970904693 15.4453571429 49.5727000000
889 2 119.6688243979 19.2803571429 52.7592000000
890 1 120.7759172550 21.1978571429 51.8097000000
891 2 122.9899976121 21.1978571429 52.7592000000
892 1 124.0970904693 19.2803571429 51.8097000000
893 2 119.6688243979 19.2803571429 48.6232000000
894 1 120.7759172550 21.1978571429 49.5727000000
895 2 122.9899976121 21.1978571429 48.6232000000
896 1 124.0970904693 19.2803571429 49.5727000000
897 2 126.3112761836 15.4453571429 52.7592000000
898 1 127.4182636836 17.3628571429 51.8097000000
899 2 129.6324493979 17.3628571429 52.7592000000
900 1 130.7395422550 15.4453571429 51.8097000000
901 2 126.3112761836 15.4453571429 48.6232000000
902 1 127.4182636836 17.3628571429 49.5727000000
903 2 129.6324493979 17.3628571429 48.6232000000
904 1 130.7395422550 15.4453571429 49.5727000000
905 2 126.3112761836 19.2803571429 52.7592000000
906 1 127.4182636836 21.1978571429 51.8097000000
907 2 129.6324493979 21.1978571429 52.7592000000
908 1 130.7395422550 19.2803571429 51.8097000000
909 2 126.3112761836 19.2803571429 48.6232000000
910 1 127.4182636836 21.1978571429 49.5727000000
911 2 129.6324493979 21.1978571429 48.6232000000
912 1 130.7395422550 19.2803571429 49.5727000000
913 2 0.1053571429 23.1153571429 52.7592000000
914 1 1.2124500000 25.0328571429 51.8097000000
915 2 0.1053571429 23.1153571429 48.6232000000
916 1 1.2124500000 25.0328571429 49.5727000000
917 2 3.4265303571 25.0328571429 48.6232000000
918 1 4.5336232143 23.1153571429 49.5727000000
919 2 0.1053571429 26.9503571429 52.7592000000
920 1 1.2124500000 28.8678571429 51.8097000000
921 2 3.4265303571 28.8678571429 52.7592000000
922 1 4.5336232143 26.9503571429 51.8097000000
923 2 0.1053571429 26.9503571429 48.6232000000
924 1 1.2124500000 28.8678571429 49.5727000000
925 2 3.4265303571 28.8678571429 48.6232000000
926 1 4.5336232143 26.9503571429 49.5727000000
927 2 6.7478089286 23.1153571429 52.7592000000
928 1 7.8547964286 25.0328571429 51.8097000000
929 2 10.0689821429 25.0328571429 52.7592000000
930 2 6.7478089286 23.1153571429 48.6232000000
931 1 7.8547964286 25.0328571429 49.5727000000
932 2 10.0689821429 25.0328571429 48.6232000000
933 1 11.1760750000 23.1153571429 49.5727000000
934 2 6.7478089286 26.9503571429 52.7592000000
935 1 7.8547964286 28.8678571429 51.8097000000
936 2 10.0689821429 28.8678571429 52.7592000000
937 1 11.1760750000 26.9503571429 51.8097000000
938 2 6.7478089286 26.9503571429 48.6232000000
939 1 7.8547964286 28.8678571429 49.5727000000
940 2 10.0689821429 28.8678571429 48.6232000000
941 1 11.1760750000 26.9503571429 49.5727000000
942 1 14.4972796950 25.0328571429 51.8097000000
943 2 16.7113600521 25.0328571429 52.7592000000
944 1 17.8184529093 23.1153571429 51.8097000000
945 2 13.3901868379 23.1153571429 48.6232000000
946 1 14.4972796950 25.0328571429 49.5727000000
947 2 16.7113600521 25.0328571429 48.6232000000
948 1 17.8184529093 23.1153571429 49.5727000000
949 2 13.3901868379 26.9503571429 52.7592000000
950 1 14.4972796950 28.8678571429 51.8097000000
951 2 16.7113600521 28.8678571429 52.7592000000
952 1 17.8184529093 26.9503571429 51.8097000000
953 2 13.3901868379 26.9503571429 48.6232000000
954 1 14.4972796950 28.8678571429 49.5727000000
955 2 16.7113600521 28.8678571429 48.6232000000
956 1 17.8184529093 26.9503571429 49.5727000000
957 2 23.3538118379 25.0328571429 52.7592000000
958 1 24.4609046950 23.1153571429 51.8097000000
959 2 20.0326386236 23.1153571429 48.6232000000
960 1 21.1396261236 25.0328571429 49.5727000000
961 2 23.3538118379 25.0328571429 48.6232000000
962 1 24.4609046950 23.1153571429 49.5727000000
963 2 20.0326386236 26.9503571429 52.7592000000
964 1 21.1396261236 28.8678571429 51.8097000000
965 2 23.3538118379 28.8678571429 52.7592000000
966 1 24.4609046950 26.9503571429 51.8097000000
967 2 20.0326386236 26.9503571429 48.6232000000
968 1 21.1396261236 28.8678571429 49.5727000000
969 2 23.3538118379 28.8678571429 48.6232000000
970 1 24.4609046950 26.9503571429 49.5727000000
971 2 26.6750165329 23.1153571429 52.7592000000
972 1 27.7821093900 25.0328571429 51.8097000000
973 2 29.9961897471 25.0328571429 52.7592000000
974 1 31.1032826043 23.1153571429 51.8097000000
975 2 26.6750165329 23.1153571429 48.6232000000
976 1 27.7821093900 25.0328571429 49.5727000000
977 2 29.9961897471 25.0328571429 48.6232000000
978 1 31.1032826043 23.1153571429 49.5727000000
979 2 26.6750165329 26.9503571429 52.7592000000
980 1 27.7821093900 28.8678571429 51.8097000000
981 2 29.9961897471 28.8678571429 52.7592000000
982 1 31.1032826043 26.9503571429 51.8097000000
983 2 26.6750165329 26.9503571429 48.6232000000
984 1 27.7821093900 28.8678571429 49.5727000000
985 2 29.9961897471 28.8678571429 48.6232000000
986 1 31.1032826043 26.9503571429 49.5727000000
987 2 33.3174683186 23.1153571429 52.7592000000
988 1 34.4244558186 25.0328571429 51.8097000000
989 2 36.6386415329 25.0328571429 52.7592000000
990 1 37.7457343900 23.1153571429 51.8097000000
991 2 33.3174683186 23.1153571429 48.6232000000
992 1 34.4244558186 25.0328571429 49.5727000000
993 2 36.6386415329 25.0328571429 48.6232000000
994 1 37.7457343900 23.1153571429 49.5727000000
995 2 33.3174683186 26.9503571429 52.7592000000
996 1 34.4244558186 28.8678571429 51.8097000000
997 2 36.6386415329 28.8678571429 52.7592000000
998 1 37.7457343900 26.9503571429 51.8097000000
999 2 33.3174683186 26.9503571429 48.6232000000
1000 1 34.4244558186 28.8678571429 49.5727000000
1001 2 36.6386415329 28.8678571429 48.6232000000
1002 1 37.7457343900 26.9503571429 49.5727000000
1003 2 39.9598462279 23.1153571429 52.7592000000
1004 1 41.0669390850 25.0328571429 51.8097000000
1005 2 43.2810194421 25.0328571429 52.7592000000
1006 1 44.3881122993 23.1153571429 51.8097000000
1007 2 39.9598462279 23.1153571429 48.6232000000
1008 1 41.0669390850 25.0328571429 49.5727000000
1009 2 43.2810194421 25.0328571429 48.6232000000
1010 1 44.3881122993 23.1153571429 49.5727000000
1011 2 39.9598462279 26.9503571429 52.7592000000
1012 1 41.0669390850 28.8678571429 51.8097000000
1013 1 44.3881122993 26.9503571429 51.8097000000
1014 2 39.9598462279 26.9503571429 48.6232000000
1015 1 41.0669390850 28.8678571429 49.5727000000
1016 2 43.2810194421 28.8678571429 48.6232000000
1017 1 44.3881122993 26.9503571429 49.5727000000
1018 2 46.6022980136 23.1153571429 52.7592000000
1019 1 47.7092855136 25.0328571429 51.8097000000
1020 2 49.9234712279 25.0328571429 52.7592000000
1021 1 51.0305640850 23.1153571429 51.8097000000
1022 2 46.6022980136 23.1153571429 48.6232000000
1023 1 47.7092855136 25.0328571429 49.5727000000
1024 2 49.9234712279 25.0328571429 48.6232000000
1025 1 51.0305640850 23.1153571429 49.5727000000
1026 2 46.6022980136 26.9503571429 52.7592000000
1027 1 47.7092855136 28.8678571429 51.8097000000
1028 2 49.9234712279 28.8678571429 52.7592000000
1029 1 51.0305640850 26.9503571429 51.8097000000
1030 2 46.6022980136 26.9503571429 48.6232000000
1031 1 47.7092855136 28.8678571429 49.5727000000
1032 2 49.9234712279 28.8678571429 48.6232000000
1033 1 51.0305640850 26.9503571429 49.5727000000
1034 2 53.2446759229 23.1153571429 52.7592000000
1035 1 54.3517687800 25.0328571429 51.8097000000
1036 2 56.5658491371 25.0328571429 52.7592000000
1037 1 57.6729419943 23.1153571429 51.8097000000
1038 2 53.2446759229 23.1153571429 48.6232000000
1039 1 54.3517687800 25.0328571429 49.5727000000
1040 2 56.5658491371 25.0328571429 48.6232000000
1041 1 57.6729419943 23.1153571429 49.5727000000
1042 2 53.2446759229 26.9503571429 52.7592000000
1043 1 54.3517687800 28.8678571429 51.8097000000
1044 2 56.5658491371 28.8678571429 52.7592000000
1045 1 57.6729419943 26.9503571429 51.8097000000
1046 2 53.2446759229 26.9503571429 48.6232000000
1047 1 57.6729419943 26.9503571429 49.5727000000
1048 2 59.8871277086 23.1153571429 52.7592000000
1049 1 60.9941152086 25.0328571429 51.8097000000
1050 2 63.2083009229 25.0328571429 52.7592000000
1051 1 64.3153937800 23.1153571429 51.8097000000
1052 2 59.8871277086 23.1153571429 48.6232000000
1053 1 60.9941152086 25.0328571429 49.5727000000
1054 2 63.2083009229 25.0328571429 48.6232000000
1055 1 64.3153937800 23.1153571429 49.5727000000
1056 2 59.8871277086 26.9503571429 52.7592000000
1057 1 60.9941152086 28.8678571429 51.8097000000
1058 2 63.2083009229 28.8678571429 52.7592000000
1059 1 64.3153937800 26.9503571429 51.8097000000
1060 2 59.8871277086 26.9503571429 48.6232000000
1061 1 60.9941152086 28.8678571429 49.5727000000
1062 2 63.2083009229 28.8678571429 48.6232000000
1063 1 64.3153937800 26.9503571429 49.5727000000
1064 2 66.5295056179 23.1153571429 52.7592000000
1065 1 67.6365984750 25.0328571429 51.8097000000
1066 1 70.9577716893 23.1153571429 51.8097000000
1067 2 66.5295056179 23.1153571429 48.6232000000
1068 1 67.6365984750 25.0328571429 49.5727000000
1069 2 69.8506788321 25.0328571429 48.6232000000
1070 1 70.9577716893 23.1153571429 49.5727000000
1071 2 66.5295056179 26.9503571429 52.7592000000
1072 1 67.6365984750 28.8678571429 51.8097000000
1073 2 69.8506788321 28.8678571429 52.7592000000
1074 2 66.5295056179 26.9503571429 48.6232000000
1075 1 67.6365984750 28.8678571429 49.5727000000
1076 2 69.8506788321 28.8678571429 48.6232000000
1077 1 70.9577716893 26.9503571429 49.5727000000
1078 2 73.1719574036 23.1153571429 52.7592000000
1079 1 74.2789449036 25.0328571429 51.8097000000
1080 2 76.4931306179 25.0328571429 52.7592000000
1081 1 77.6002234750 23.1153571429 51.8097000000
1082 2 73.1719574036 23.1153571429 48.6232000000
1083 1 74.2789449036 25.0328571429 49.5727000000
1084 2 76.4931306179 25.0328571429 48.6232000000
1085 2 73.1719574036 26.9503571429 52.7592000000
1086 1 74.2789449036 28.8678571429 51.8097000000
1087 2 76.4931306179 28.8678571429 52.7592000000
1088 1 77.6002234750 26.9503571429 51.8097000000
1089 2 73.1719574036 26.9503571429 48.6232000000
1090 1 74.2789449036 28.8678571429 49.5727000000
1091 2 76.4931306179 28.8678571429 48.6232000000
1092 1 77.6002234750 26.9503571429 49.5727000000
1093 2 79.8143353129 23.1153571429 52.7592000000
1094 1 80.9214281700 25.0328571429 51.8097000000
1095 2 83.1355085271 25.0328571429 52.7592000000
1096 1 84.2426013843 23.1153571429 51.8097000000
1097 1 80.9214281700 25.0328571429 49.5727000000
1098 2 83.1355085271 25.0328571429 48.6232000000
1099 1 84.2426013843 23.1153571429 49.5727000000
1100 2 79.8143353129 26.9503571429 52.7592000000
1101 1 80.9214281700 28.8678571429 51.8097000000
1102 2 83.1355085271 28.8678571429 52.7592000000
1103 1 84.2426013843 26.9503571429 51.8097000000
1104 2 79.8143353129 26.9503571429 48.6232000000
1105 1 80.9214281700 28.8678571429 49.5727000000
1106 2 83.1355085271 28.8678571429 48.6232000000
1107 1 84.2426013843 26.9503571429 49.5727000000
1108 2 86.4567870986 23.1153571429 52.7592000000
1109 1 87.5637745986 25.0328571429 51.8097000000
1110 2 89.7779603129 25.0328571429 52.7592000000
1111 1 90.8850531700 23.1153571429 51.8097000000
1112 2 86.4567870986 23.1153571429 48.6232000000
1113 1 87.5637745986 25.0328571429 49.5727000000
1114 2 89.7779603129 25.0328571429 48.6232000000
1115 1 90.8850531700 23.1153571429 49.5727000000
1116 2 86.4567870986 26.9503571429 52.7592000000
1117 2 89.7779603129 28.8678571429 52.7592000000
1118 1 90.8850531700 26.9503571429 51.8097000000
1119 2 86.4567870986 26.9503571429 48.6232000000
1120 1 87.5637745986 28.8678571429 49.5727000000
1121 2 89.7779603129 28.8678571429 48.6232000000
1122 1 90.8850531700 26.9503571429 49.5727000000
1123 2 93.0991650079 23.1153571429 52.7592000000
1124 1 94.2062578650 25.0328571429 51.8097000000
1125 1 97.5274310793 23.1153571429 51.8097000000
1126 2 93.0991650079 23.1153571429 48.6232000000
1127 1 94.2062578650 25.0328571429 49.5727000000
1128 2 96.4203382221 25.0328571429 48.6232000000
1129 1 97.5274310793 23.1153571429 49.5727000000
1130 2 93.0991650079 26.9503571429 52.7592000000
1131 1 94.2062578650 28.8678571429 51.8097000000
1132 2 96.4203382221 28.8678571429 52.7592000000
1133 2 93.0991650079 26.9503571429 48.6232000000
1134 1 94.2062578650 28.8678571429 49.5727000000
1135 2 96.4203382221 28.8678571429 48.6232000000
1136 1 97.5274310793 26.9503571429 49.5727000000
1137 2 99.7416167936 23.1153571429 52.7592000000
1138 1 100.8486042936 25.0328571429 51.8097000000
1139 2 103.0627900079 25.0328571429 52.7592000000
1140 1 104.1698828650 23.1153571429 51.8097000000
1141 2 99.7416167936 23.1153571429 48.6232000000
1142 1 100.8486042936 25.0328571429 49.5727000000
1143 2 103.0627900079 25.0328571429 48.6232000000
1144 1 104.1698828650 23.1153571429 49.5727000000
1145 2 99.7416167936 26.9503571429 52.7592000000
1146 1 100.8486042936 28.8678571429 51.8097000000
1147 2 103.0627900079 28.8678571429 52.7592000000
1148 1 104.1698828650 26.9503571429 51.8097000000
1149 2 99.7416167936 26.9503571429 48.6232000000
1150 1 100.8486042936 28.8678571429 49.5727000000
1151 2 103.0627900079 28.8678571429 48.6232000000
1152 1 104.1698828650 26.9503571429 49.5727000000
1153 2 106.3839947029 23.1153571429 52.7592000000
1154 1 110.8122607743 23.1153571429 51.8097000000
1155 2 106.3839947029 23.1153571429 48.6232000000
1156 1 107.4910875600 25.0328571429 49.5727000000
1157 2 109.7051679171 25.0328571429 48.6232000000
1158 1 110.8122607743 23.1153571429 49.5727000000
1159 2 106.3839947029 26.9503571429 52.7592000000
1160 1 107.4910875600 28.8678571429 51.8097000000
1161 2 109.7051679171 28.8678571429 52.7592000000
1162 1 110.8122607743 26.9503571429 51.8097000000
1163 2 106.3839947029 26.9503571429 48.6232000000
1164 1 107.4910875600 28.8678571429 49.5727000000
1165 2 109.7051679171 28.8678571429 48.6232000000
1166 1 110.8122607743 26.9503571429 49.5727000000
1167 2 113.0264464886 23.1153571429 52.7592000000
1168 1 114.1334339886 25.0328571429 51.8097000000
1169 2 116.3476197029 25.0328571429 52.7592000000
1170 1 117.4547125600 23.1153571429 51.8097000000
1171 2 113.0264464886 23.1153571429 48.6232000000
1172 1 114.1334339886 25.0328571429 49.5727000000
1173 2 116.3476197029 25.0328571429 48.6232000000
1174 1 117.4547125600 23.1153571429 49.5727000000
1175 2 113.0264464886 26.9503571429 52.7592000000
1176 1 114.1334339886 28.8678571429 51.8097000000
1177 2 116.3476197029 28.8678571429 52.7592000000
1178 1 117.4547125600 26.9503571429 51.8097000000
1179 2 113.0264464886 26.9503571429 48.6232000000
1180 1 114.1334339886 28.8678571429 49.5727000000
1181 2 116.3476197029 28.8678571429 48.6232000000
1182 1 117.4547125600 26.9503571429 49.5727000000
1183 2 119.6688243979 23.1153571429 52.7592000000
1184 1 120.7759172550 25.0328571429 51.8097000000
1185 2 119.6688243979 23.1153571429 48.6232000000
1186 1 120.7759172550 25.0328571429 49.5727000000
1187 2 122.9899976121 25.0328571429 48.6232000000
1188 1 124.0970904693 23.1153571429 49.5727000000
1189 2 119.6688243979 26.9503571429 52.7592000000
1190 1 120.7759172550 28.8678571429 51.8097000000
1191 2 122.9899976121 28.8678571429 52.7592000000
1192 1 124.0970904693 26.9503571429 51.8097000000
1193 2 119.6688243979 26.9503571429 48.6232000000
1194 1 120.7759172550 28.8678571429 49.5727000000
1195 2 122.9899976121 28.8678571429 48.6232000000
1196 1 124.0970904693 26.9503571429 49.5727000000
1197 2 126.3112761836 23.1153571429 52.7592000000
1198 1 127.4182636836 25.0328571429 51.8097000000
1199 2 129.6324493979 25.0328571429 52.7592000000
1200 1 130.7395422550 23.1153571429 51.8097000000
1201 2 126.3112761836 23.1153571429 48.6232000000
1202 1 127.4182636836 25.0328571429 49.5727000000
1203 2 129.6324493979 25.0328571429 48.6232000000
1204 1 130.7395422550 23.1153571429 49.5727000000
1205 2 126.3112761836 26.9503571429 52.7592000000
1206 1 127.4182636836 28.8678571429 51.8097000000
1207 2 129.6324493979 28.8678571429 52.7592000000
1208 1 130.7395422550 26.9503571429 51.8097000000
1209 2 126.3112761836 26.9503571429 48.6232000000
1210 1 127.4182636836 28.8678571429 49.5727000000
1211 2 129.6324493979 28.8678571429 48.6232000000
1212 1 130.7395422550 26.9503571429 49.5727000000
1213 2 0.1053571429 30.7853571429 52.7592000000
1214 1 1.2124500000 32.7028571429 51.8097000000
1215 2 3.4265303571 32.7028571429 52.7592000000
1216 1 4.5336232143 30.7853571429 51.8097000000
1217 2 0.1053571429 30.7853571429 48.6232000000
1218 1 1.2124500000 32.7028571429 49.5727000000
1219 2 3.4265303571 32.7028571429 48.6232000000
1220 1 4.5336232143 30.7853571429 49.5727000000
1221 2 0.1053571429 34.6203571429 52.7592000000
1222 1 1.2124500000 36.5378571429 51.8097000000
1223 2 3.4265303571 36.5378571429 52.7592000000
1224 1 4.5336232143 34.6203571429 51.8097000000
1225 1 1.2124500000 36.5378571429 49.5727000000
1226 2 3.4265303571 36.5378571429 48.6232000000
1227 1 4.5336232143 34.6203571429 49.5727000000
1228 2 6.7478089286 30.7853571429 52.7592000000
1229 1 7.8547964286 32.7028571429 51.8097000000
1230 2 10.0689821429 32.7028571429 52.7592000000
1231 1 11.1760750000 30.7853571429 51.8097000000
1232 2 10.0689821429 32.7028571429 48.6232000000
1233 1 11.1760750000 30.7853571429 49.5727000000
1234 2 6.7478089286 34.6203571429 52.7592000000
1235 1 7.8547964286 36.5378571429 51.8097000000
1236 2 10.0689821429 36.5378571429 52.7592000000
1237 1 11.1760750000 34.6203571429 51.8097000000
1238 2 6.7478089286 34.6203571429 48.6232000000
1239 1 7.8547964286 36.5378571429 49.5727000000
1240 2 10.0689821429 36.5378571429 48.6232000000
1241 1 11.1760750000 34.6203571429 49.5727000000
1242 2 13.3901868379 30.7853571429 52.7592000000
1243 1 14.4972796950 32.7028571429 51.8097000000
1244 2 16.7113600521 32.7028571429 52.7592000000
1245 1 17.8184529093 30.7853571429 51.8097000000
1246 2 13.3901868379 30.7853571429 48.6232000000
1247 1 14.4972796950 32.7028571429 49.5727000000
1248 2 16.7113600521 32.7028571429 48.6232000000
1249 1 17.8184529093 30.7853571429 49.5727000000
1250 2 13.3901868379 34.6203571429 52.7592000000
1251 1 14.4972796950 36.5378571429 51.8097000000
1252 2 13.3901868379 34.6203571429 48.6232000000
1253 1 14.4972796950 36.5378571429 49.5727000000
1254 2 16.7113600521 36.5378571429 48.6232000000
1255 1 17.8184529093 34.6203571429 49.5727000000
1256 2 20.0326386236 30.7853571429 52.7592000000
1257 1 21.1396261236 32.7028571429 51.8097000000
1258 2 23.3538118379 32.7028571429 52.7592000000
1259 1 24.4609046950 30.7853571429 51.8097000000
1260 2 20.0326386236 30.7853571429 48.6232000000
1261 1 21.1396261236 32.7028571429 49.5727000000
1262 2 23.3538118379 32.7028571429 48.6232000000
1263 2 20.0326386236 34.6203571429 52.7592000000
1264 1 21.1396261236 36.5378571429 51.8097000000
1265 2 23.3538118379 36.5378571429 52.7592000000
1266 1 24.4609046950 34.6203571429 51.8097000000
1267 2 20.0326386236 34.6203571429 48.6232000000
1268 1 21.1396261236 36.5378571429 49.5727000000
1269 2 23.3538118379 36.5378571429 48.6232000000
1270 1 24.4609046950 34.6203571429 49.5727000000
1271 2 26.6750165329 30.7853571429 52.7592000000
1272 1 27.7821093900 32.7028571429 51.8097000000
1273 2 29.9961897471 32.7028571429 52.7592000000
1274 1 31.1032826043 30.7853571429 51.8097000000
1275 1 27.7821093900 32.7028571429 49.5727000000
1276 2 29.9961897471 32.7028571429 48.6232000000
1277 1 31.1032826043 30.7853571429 49.5727000000
1278 2 26.6750165329 34.6203571429 52.7592000000
1279 1 27.7821093900 36.5378571429 51.8097000000
1280 2 29.9961897471 36.5378571429 52.7592000000
1281 1 31.1032826043 34.6203571429 51.8097000000
1282 2 26.6750165329 34.6203571429 48.6232000000
1283 1 27.7821093900 36.5378571429 49.5727000000
1284 2 29.9961897471 36.5378571429 48.6232000000
1285 1 31.1032826043 34.6203571429 49.5727000000
1286 2 33.3174683186 30.7853571429 52.7592000000
1287 1 34.4244558186 32.7028571429 51.8097000000
1288 2 36.6386415329 32.7028571429 52.7592000000
1289 1 37.7457343900 30.7853571429 51.8097000000
1290 2 36.6386415329 32.7028571429 48.6232000000
1291 1 37.7457343900 30.7853571429 49.5727000000
1292 2 33.3174683186 34.6203571429 52.7592000000
1293 1 34.4244558186 36.5378571429 51.8097000000
1294 2 36.6386415329 36.5378571429 52.7592000000
1295 1 37.7457343900 34.6203571429 51.8097000000
1296 2 33.3174683186 34.6203571429 48.6232000000
1297 1 34.4244558186 36.5378571429 49.5727000000
1298 2 36.6386415329 36.5378571429 48.6232000000
1299 1 37.7457343900 34.6203571429 49.5727000000
1300 2 39.9598462279 30.7853571429 52.7592000000
1301 1 41.0669390850 32.7028571429 51.8097000000
1302 2 43.2810194421 32.7028571429 52.7592000000
1303 2 39.9598462279 30.7853571429 48.6232000000
1304 1 41.0669390850 32.7028571429 49.5727000000
1305 2 43.2810194421 32.7028571429 48.6232000000
1306 1 44.3881122993 30.7853571429 49.5727000000
1307 2 39.9598462279 34.6203571429 52.7592000000
1308 1 41.0669390850 36.5378571429 51.8097000000
1309 2 43.2810194421 36.5378571429 52.7592000000
1310 1 44.3881122993 34.6203571429 51.8097000000
1311 2 39.9598462279 34.6203571429 48.6232000000
1312 1 41.0669390850 36.5378571429 49.5727000000
1313 2 43.2810194421 36.5378571429 48.6232000000
1314 1 44.3881122993 34.6203571429 49.5727000000
1315 2 46.6022980136 30.7853571429 52.7592000000
1316 1 47.7092855136 32.7028571429 51.8097000000
1317 2 49.9234712279 32.7028571429 52.7592000000
1318 1 51.0305640850 30.7853571429 51.8097000000
1319 2 46.6022980136 30.7853571429 48.6232000000
1320 1 47.7092855136 32.7028571429 49.5727000000
1321 2 49.9234712279 32.7028571429 48.6232000000
1322 1 51.0305640850 30.7853571429 49.5727000000
1323 2 46.6022980136 34.6203571429 52.7592000000
1324 1 47.7092855136 36.5378571429 51.8097000000
1325 2 49.9234712279 36.5378571429 52.7592000000
1326 1 51.0305640850 34.6203571429 51.8097000000
1327 2 46.6022980136 34.6203571429 48.6232000000
1328 1 47.7092855136 36.5378571429 49.5727000000
1329 2 49.9234712279 36.5378571429 48.6232000000
1330 1 51.0305640850 34.6203571429 49.5727000000
1331 2 53.2446759229 30.7853571429 52.7592000000
1332 1 54.3517687800 32.7028571429 51.8097000000
1333 2 56.5658491371 32.7028571429 52.7592000000
1334 1 57.6729419943 30.7853571429 51.8097000000
1335 2 53.2446759229 30.7853571429 48.6232000000
1336 1 54.3517687800 32.7028571429 49.5727000000
1337 2 56.5658491371 32.7028571429 48.6232000000
1338 1 57.6729419943 30.7853571429 49.5727000000
1339 2 53.2446759229 34.6203571429 52.7592000000
1340 1 54.3517687800 36.5378571429 51.8097000000
1341 2 56.5658491371 36.5378571429 52.7592000000
1342 1 57.6729419943 34.6203571429 51.8097000000
1343 2 53.2446759229 34.6203571429 48.6232000000
1344 1 54.3517687800 36.5378571429 49.5727000000
1345 2 56.5658491371 36.5378571429 48.6232000000
1346 1 57.6729419943 34.6203571429 49.5727000000
1347 2 59.8871277086 30.7853571429 52.7592000000
1348 1 60.9941152086 32.7028571429 51.8097000000
1349 2 63.2083009229 32.7028571429 52.7592000000
1350 1 64.3153937800 30.7853571429 51.8097000000
1351 2 59.8871277086 30.7853571429 48.6232000000
1352 1 60.9941152086 32.7028571429 49.5727000000
1353 2 63.2083009229 32.7028571429 48.6232000000
1354 1 64.3153937800 30.7853571429 49.5727000000
1355 2 59.8871277086 34.6203571429 52.7592000000
1356 1 60.9941152086 36.5378571429 51.8097000000
1357 2 63.2083009229 36.5378571429 52.7592000000
1358 1 64.3153937800 34.6203571429 51.8097000000
1359 2 59.8871277086 34.6203571429 48.6232000000
1360 1 60.9941152086 36.5378571429 49.5727000000
1361 2 63.2083009229 36.5378571429 48.6232000000
1362 1 64.3153937800 34.6203571429 49.5727000000
1363 2 66.5295056179 30.7853571429 52.7592000000
1364 1 67.6365984750 32.7028571429 51.8097000000
1365 2 69.8506788321 32.7028571429 52.7592000000
1366 1 70.9577716893 30.7853571429 51.8097000000
1367 2 66.5295056179 30.7853571429 48.6232000000
1368 1 67.6365984750 32.7028571429 49.5727000000
1369 2 69.8506788321 32.7028571429 48.6232000000
1370 1 70.9577716893 30.7853571429 49.5727000000
1371 2 66.5295056179 34.6203571429 52.7592000000
1372 1 67.6365984750 36.5378571429 51.8097000000
1373 2 69.8506788321 36.5378571429 52.7592000000
1374 1 70.9577716893 34.6203571429 51.8097000000
1375 2 66.5295056179 34.6203571429 48.6232000000
1376 1 67.6365984750 36.5378571429 49.5727000000
1377 2 69.8506788321 36.5378571429 48.6232000000
1378 1 70.9577716893 34.6203571429 49.5727000000
1379 2 73.1719574036 30.7853571429 52.7592000000
1380 1 74.2789449036 32.7028571429 51.8097000000
1381 2 76.4931306179 32.7028571429 52.7592000000
1382 1 77.6002234750 30.7853571429 51.8097000000
1383 2 73.1719574036 30.7853571429 48.6232000000
1384 1 74.2789449036 32.7028571429 49.5727000000
1385 2 76.4931306179 32.7028571429 48.6232000000
1386 1 77.6002234750 30.7853571429 49.5727000000
1387 2 73.1719574036 34.6203571429 52.7592000000
1388 1 74.2789449036 36.5378571429 51.8097000000
1389 2 76.4931306179 36.5378571429 52.7592000000
1390 1 77.6002234750 34.6203571429 51.8097000000
1391 2 73.1719574036 34.6203571429 48.6232000000
1392 1 74.2789449036 36.5378571429 49.5727000000
1393 2 76.4931306179 36.5378571429 48.6232000000
1394 1 77.6002234750 34.6203571429 49.5727000000
1395 2 79.8143353129 30.7853571429 52.7592000000
1396 1 80.9214281700 32.7028571429 51.8097000000
1397 2 83.1355085271 32.7028571429 52.7592000000
1398 1 84.2426013843 30.7853571429 51.8097000000
1399 2 79.8143353129 30.7853571429 48.6232000000
1400 1 80.9214281700 32.7028571429 49.5727000000
1401 2 83.1355085271 32.7028571429 48.6232000000
1402 1 84.2426013843 30.7853571429 49.5727000000
1403 2 79.8143353129 34.6203571429 52.7592000000
1404 1 80.9214281700 36.5378571429 51.8097000000
1405 2 83.1355085271 36.5378571429 52.7592000000
1406 1 84.2426013843 34.6203571429 51.8097000000
1407 2 79.8143353129 34.6203571429 48.6232000000
1408 1 80.9214281700 36.5378571429 49.5727000000
1409 2 83.1355085271 36.5378571429 48.6232000000
1410 1 84.2426013843 34.6203571429 49.5727000000
1411 1 87.5637745986 32.7028571429 51.8097000000
1412 2 89.7779603129 32.7028571429 52.7592000000
1413 1 90.8850531700 30.7853571429 51.8097000000
1414 2 86.4567870986 30.7853571429 48.6232000000
1415 1 87.5637745986 32.7028571429 49.5727000000
1416 2 89.7779603129 32.7028571429 48.6232000000
1417 1 90.8850531700 30.7853571429 49.5727000000
1418 2 86.4567870986 34.6203571429 52.7592000000
1419 1 87.5637745986 36.5378571429 51.8097000000
1420 2 89.7779603129 36.5378571429 52.7592000000
1421 1 90.8850531700 34.6203571429 51.8097000000
1422 2 86.4567870986 34.6203571429 48.6232000000
1423 1 87.5637745986 36.5378571429 49.5727000000
1424 2 89.7779603129 36.5378571429 48.6232000000
1425 1 90.8850531700 34.6203571429 49.5727000000
1426 2 93.0991650079 30.7853571429 52.7592000000
1427 1 94.2062578650 32.7028571429 51.8097000000
1428 2 96.4203382221 32.7028571429 52.7592000000
1429 1 97.5274310793 30.7853571429 51.8097000000
1430 2 93.0991650079 30.7853571429 48.6232000000
1431 1 94.2062578650 32.7028571429 49.5727000000
1432 2 96.4203382221 32.7028571429 48.6232000000
1433 1 97.5274310793 30.7853571429 49.5727000000
1434 2 93.0991650079 34.6203571429 52.7592000000
1435 1 94.2062578650 36.5378571429 51.8097000000
1436 2 96.4203382221 36.5378571429 52.7592000000
1437 1 97.5274310793 34.6203571429 51.8097000000
1438 2 93.0991650079 34.6203571429 48.6232000000
1439 1 94.2062578650 36.5378571429 49.5727000000
1440 2 96.4203382221 36.5378571429 48.6232000000
1441 1 97.5274310793 34.6203571429 49.5727000000
1442 2 99.7416167936 30.7853571429 52.7592000000
1443 1 100.8486042936 32.7028571429 51.8097000000
1444 2 103.0627900079 32.7028571429 52.7592000000
1445 1 104.1698828650 30.7853571429 51.8097000000
1446 2 99.7416167936 30.7853571429 48.6232000000
1447 1 100.8486042936 32.7028571429 49.5727000000
1448 2 103.0627900079 32.7028571429 48.6232000000
1449 1 104.1698828650 30.7853571429 49.5727000000
1450 2 99.7416167936 34.6203571429 52.7592000000
1451 1 100.8486042936 36.5378571429 51.8097000000
1452 2 103.0627900079 36.5378571429 52.7592000000
1453 1 104.1698828650 34.6203571429 51.8097000000
1454 2 99.7416167936 34.6203571429 48.6232000000
1455 1 100.8486042936 36.5378571429 49.5727000000
1456 2 103.0627900079 36.5378571429 48.6232000000
1457 1 104.1698828650 34.6203571429 49.5727000000
1458 2 106.3839947029 30.7853571429 52.7592000000
1459 1 107.4910875600 32.7028571429 51.8097000000
1460 2 109.7051679171 32.7028571429 52.7592000000
1461 1 110.8122607743 30.7853571429 51.8097000000
1462 2 106.3839947029 30.7853571429 48.6232000000
1463 1 107.4910875600 32.7028571429 49.5727000000
1464 2 109.7051679171 32.7028571429 48.6232000000
1465 1 110.8122607743 30.7853571429 49.5727000000
1466 2 106.3839947029 34.6203571429 52.7592000000
1467 1 107.4910875600 36.5378571429 51.8097000000
1468 2 109.7051679171 36.5378571429 52.7592000000
1469 1 110.8122607743 34.6203571429 51.8097000000
1470 2 106.3839947029 34.6203571429 48.6232000000
1471 1 107.4910875600 36.5378571429 49.5727000000
1472 2 109.7051679171 36.5378571429 48.6232000000
1473 1 110.8122607743 34.6203571429 49.5727000000
1474 2 113.0264464886 30.7853571429 52.7592000000
1475 1 114.1334339886 32.7028571429 51.8097000000
1476 2 116.3476197029 32.7028571429 52.7592000000
1477 1 117.4547125600 30.7853571429 51.8097000000
1478 2 116.3476197029 32.7028571429 48.6232000000
1479 1 117.4547125600 30.7853571429 49.5727000000
1480 2 113.0264464886 34.6203571429 52.7592000000
1481 1 114.1334339886 36.5378571429 51.8097000000
1482 2 116.3476197029 36.5378571429 52.7592000000
1483 1 117.4547125600 34.6203571429 51.8097000000
1484 2 113.0264464886 34.6203571429 48.6232000000
1485 1 114.1334339886 36.5378571429 49.5727000000
1486 2 116.3476197029 36.5378571429 48.6232000000
1487 1 117.4547125600 34.6203571429 49.5727000000
1488 2 119.6688243979 30.7853571429 52.7592000000
1489 1 124.0970904693 30.7853571429 51.8097000000
1490 2 119.6688243979 30.7853571429 48.6232000000
1491 1 120.7759172550 32.7028571429 49.5727000000
1492 2 122.9899976121 32.7028571429 48.6232000000
1493 1 124.0970904693 30.7853571429 49.5727000000
1494 2 119.6688243979 34.6203571429 52.7592000000
1495 1 120.7759172550 36.5378571429 51.8097000000
1496 2 122.9899976121 36.5378571429 52.7592000000
1497 1 124.0970904693 34.6203571429 51.8097000000
1498 2 119.6688243979 34.6203571429 48.6232000000
1499 1 120.7759172550 36.5378571429 49.5727000000
1500 2 122.9899976121 36.5378571429 48.6232000000
1501 1 124.0970904693 34.6203571429 49.5727000000
1502 2 126.3112761836 30.7853571429 52.7592000000
1503 1 127.4182636836 32.7028571429 51.8097000000
1504 2 129.6324493979 32.7028571429 52.7592000000
1505 1 130.7395422550 30.7853571429 51.8097000000
1506 2 126.3112761836 30.7853571429 48.6232000000
1507 1 127.4182636836 32.7028571429 49.5727000000
1508 2 129.6324493979 32.7028571429 48.6232000000
1509 1 130.7395422550 30.7853571429 49.5727000000
1510 2 126.3112761836 34.6203571429 52.7592000000
1511 1 127.4182636836 36.5378571429 51.8097000000
1512 2 129.6324493979 36.5378571429 52.7592000000
1513 1 130.7395422550 34.6203571429 51.8097000000
1514 2 126.3112761836 34.6203571429 48.6232000000
1515 1 127.4182636836 36.5378571429 49.5727000000
1516 2 129.6324493979 36.5378571429 48.6232000000
1517 2 0.1053571429 38.4553571429 52.7592000000
1518 1 1.2124500000 40.3728571429 51.8097000000
1519 2 3.4265303571 40.3728571429 52.7592000000
1520 1 4.5336232143 38.4553571429 51.8097000000
1521 2 0.1053571429 38.4553571429 48.6232000000
1522 1 1.2124500000 40.3728571429 49.5727000000
1523 2 3.4265303571 40.3728571429 48.6232000000
1524 1 4.5336232143 38.4553571429 49.5727000000
1525 2 0.1053571429 42.2903571429 52.7592000000
1526 1 1.2124500000 44.2078571429 51.8097000000
1527 2 3.4265303571 44.2078571429 52.7592000000
1528 1 4.5336232143 42.2903571429 51.8097000000
1529 2 0.1053571429 42.2903571429 48.6232000000
1530 1 1.2124500000 44.2078571429 49.5727000000
1531 2 3.4265303571 44.2078571429 48.6232000000
1532 1 4.5336232143 42.2903571429 49.5727000000
1533 2 6.7478089286 38.4553571429 52.7592000000
1534 1 7.8547964286 40.3728571429 51.8097000000
1535 2 10.0689821429 40.3728571429 52.7592000000
1536 1 11.1760750000 38.4553571429 51.8097000000
1537 2 6.7478089286 38.4553571429 48.6232000000
1538 2 10.0689821429 40.3728571429 48.6232000000
1539 1 11.1760750000 38.4553571429 49.5727000000
1540 2 6.7478089286 42.2903571429 52.7592000000
1541 1 7.8547964286 44.2078571429 51.8097000000
1542 2 10.0689821429 44.2078571429 52.7592000000
1543 1 11.1760750000 42.2903571429 51.8097000000
1544 1 7.8547964286 44.2078571429 49.5727000000
1545 2 10.0689821429 44.2078571429 48.6232000000
1546 1 11.1760750000 42.2903571429 49.5727000000
1547 2 13.3901868379 38.4553571429 52.7592000000
1548 1 14.4972796950 40.3728571429 51.8097000000
1549 2 16.7113600521 40.3728571429 52.7592000000
1550 1 17.8184529093 38.4553571429 51.8097000000
1551 2 13.3901868379 38.4553571429 48.6232000000
1552 1 14.4972796950 40.3728571429 49.5727000000
1553 2 16.7113600521 40.3728571429 48.6232000000
1554 1 17.8184529093 38.4553571429 49.5727000000
1555 2 13.3901868379 42.2903571429 52.7592000000
1556 1 14.4972796950 44.2078571429 51.8097000000
1557 2 16.7113600521 44.2078571429 52.7592000000
1558 1 17.8184529093 42.2903571429 51.8097000000
1559 2 13.3901868379 42.2903571429 48.6232000000
1560 1 17.8184529093 42.2903571429 49.5727000000
1561 2 20.0326386236 38.4553571429 52.7592000000
1562 1 21.1396261236 40.3728571429 51.8097000000
1563 2 23.3538118379 40.3728571429 52.7592000000
1564 1 24.4609046950 38.4553571429 51.8097000000
1565 2 20.0326386236 38.4553571429 48.6232000000
1566 1 21.1396261236 40.3728571429 49.5727000000
1567 2 23.3538118379 40.3728571429 48.6232000000
1568 1 24.4609046950 38.4553571429 49.5727000000
1569 2 20.0326386236 42.2903571429 52.7592000000
1570 1 21.1396261236 44.2078571429 51.8097000000
1571 2 23.3538118379 44.2078571429 52.7592000000
1572 1 24.4609046950 42.2903571429 51.8097000000
1573 2 20.0326386236 42.2903571429 48.6232000000
1574 1 21.1396261236 44.2078571429 49.5727000000
1575 2 23.3538118379 44.2078571429 48.6232000000
1576 1 24.4609046950 42.2903571429 49.5727000000
1577 2 26.6750165329 38.4553571429 52.7592000000
1578 1 27.7821093900 40.3728571429 51.8097000000
1579 2 29.9961897471 40.3728571429 52.7592000000
1580 1 31.1032826043 38.4553571429 51.8097000000
1581 2 26.6750165329 38.4553571429 48.6232000000
1582 1 27.7821093900 40.3728571429 49.5727000000
1583 1 31.1032826043 38.4553571429 49.5727000000
1584 2 26.6750165329 42.2903571429 52.7592000000
1585 1 27.7821093900 44.2078571429 51.8097000000
1586 2 29.9961897471 44.2078571429 52.7592000000
1587 1 31.1032826043 42.2903571429 51.8097000000
1588 2 26.6750165329 42.2903571429 48.6232000000
1589 1 27.7821093900 44.2078571429 49.5727000000
1590 2 29.9961897471 44.2078571429 48.6232000000
1591 2 33.3174683186 38.4553571429 52.7592000000
1592 1 34.4244558186 40.3728571429 51.8097000000
1593 2 36.6386415329 40.3728571429 52.7592000000
1594 1 37.7457343900 38.4553571429 51.8097000000
1595 2 33.3174683186 38.4553571429 48.6232000000
1596 1 34.4244558186 40.3728571429 49.5727000000
1597 2 36.6386415329 40.3728571429 48.6232000000
1598 1 37.7457343900 38.4553571429 49.5727000000
1599 2 33.3174683186 42.2903571429 52.7592000000
1600 1 34.4244558186 44.2078571429 51.8097000000
1601 2 36.6386415329 44.2078571429 52.7592000000
1602 1 37.7457343900 42.2903571429 51.8097000000
1603 2 33.3174683186 42.2903571429 48.6232000000
1604 1 34.4244558186 44.2078571429 49.5727000000
1605 2 36.6386415329 44.2078571429 48.6232000000
1606 2 39.9598462279 38.4553571429 52.7592000000
1607 1 41.0669390850 40.3728571429 51.8097000000
1608 2 43.2810194421 40.3728571429 52.7592000000
1609 1 44.3881122993 38.4553571429 51.8097000000
1610 2 39.9598462279 38.4553571429 48.6232000000
1611 1 41.0669390850 40.3728571429 49.5727000000
1612 2 43.2810194421 40.3728571429 48.6232000000
1613 1 44.3881122993 38.4553571429 49.5727000000
1614 2 39.9598462279 42.2903571429 52.7592000000
1615 1 41.0669390850 44.2078571429 51.8097000000
1616 2 43.2810194421 44.2078571429 52.7592000000
1617 1 44.3881122993 42.2903571429 51.8097000000
1618 1 41.0669390850 44.2078571429 49.5727000000
1619 2 43.2810194421 44.2078571429 48.6232000000
1620 1 44.3881122993 42.2903571429 49.5727000000
1621 2 46.6022980136 38.4553571429 52.7592000000
1622 1 47.7092855136 40.3728571429 51.8097000000
1623 2 49.9234712279 40.3728571429 52.7592000000
1624 1 51.0305640850 38.4553571429 51.8097000000
1625 2 46.6022980136 38.4553571429 48.6232000000
1626 2 49.9234712279 40.3728571429 48.6232000000
1627 1 51.0305640850 38.4553571429 49.5727000000
1628 2 46.6022980136 42.2903571429 52.7592000000
1629 1 47.7092855136 44.2078571429 51.8097000000
1630 2 49.9234712279 44.2078571429 52.7592000000
1631 1 51.0305640850 42.2903571429 51.8097000000
1632 1 47.7092855136 44.2078571429 49.5727000000
1633 2 49.9234712279 44.2078571429 48.6232000000
1634 1 51.0305640850 42.2903571429 49.5727000000
1635 2 53.2446759229 38.4553571429 52.7592000000
1636 1 54.3517687800 40.3728571429 51.8097000000
1637 2 56.5658491371 40.3728571429 52.7592000000
1638 1 57.6729419943 38.4553571429 51.8097000000
1639 2 53.2446759229 38.4553571429 48.6232000000
1640 1 54.3517687800 40.3728571429 49.5727000000
1641 2 56.5658491371 40.3728571429 48.6232000000
1642 1 57.6729419943 38.4553571429 49.5727000000
1643 2 53.2446759229 42.2903571429 52.7592000000
1644 1 54.3517687800 44.2078571429 51.8097000000
1645 2 56.5658491371 44.2078571429 52.7592000000
1646 1 57.6729419943 42.2903571429 51.8097000000
1647 2 53.2446759229 42.2903571429 48.6232000000
1648 1 54.3517687800 44.2078571429 49.5727000000
1649 1 57.6729419943 42.2903571429 49.5727000000
1650 2 59.8871277086 38.4553571429 52.7592000000
1651 1 60.9941152086 40.3728571429 51.8097000000
1652 2 63.2083009229 40.3728571429 52.7592000000
1653 1 64.3153937800 38.4553571429 51.8097000000
1654 2 59.8871277086 38.4553571429 48.6232000000
1655 1 60.9941152086 40.3728571429 49.5727000000
1656 2 63.2083009229 40.3728571429 48.6232000000
1657 1 64.3153937800 38.4553571429 49.5727000000
1658 2 59.8871277086 42.2903571429 52.7592000000
1659 1 60.9941152086 44.2078571429 51.8097000000
1660 2 63.2083009229 44.2078571429 52.7592000000
1661 1 64.3153937800 42.2903571429 51.8097000000
1662 2 59.8871277086 42.2903571429 48.6232000000
1663 1 60.9941152086 44.2078571429 49.5727000000
1664 2 63.2083009229 44.2078571429 48.6232000000
1665 1 64.3153937800 42.2903571429 49.5727000000
1666 2 66.5295056179 38.4553571429 52.7592000000
1667 1 67.6365984750 40.3728571429 51.8097000000
1668 2 69.8506788321 40.3728571429 52.7592000000
1669 1 70.9577716893 38.4553571429 51.8097000000
1670 2 66.5295056179 38.4553571429 48.6232000000
1671 1 67.6365984750 40.3728571429 49.5727000000
1672 2 69.8506788321 40.3728571429 48.6232000000
1673 1 70.9577716893 38.4553571429 49.5727000000
1674 2 66.5295056179 42.2903571429 52.7592000000
1675 1 70.9577716893 42.2903571429 51.8097000000
1676 2 66.5295056179 42.2903571429 48.6232000000
1677 1 67.6365984750 44.2078571429 49.5727000000
1678 2 69.8506788321 44.2078571429 48.6232000000
1679 1 70.9577716893 42.2903571429 49.5727000000
1680 2 73.1719574036 38.4553571429 52.7592000000
1681 1 74.2789449036 40.3728571429 51.8097000000
1682 2 76.4931306179 40.3728571429 52.7592000000
1683 1 77.6002234750 38.4553571429 51.8097000000
1684 2 73.1719574036 38.4553571429 48.6232000000
1685 1 74.2789449036 40.3728571429 49.5727000000
1686 2 76.4931306179 40.3728571429 48.6232000000
1687 1 77.6002234750 38.4553571429 49.5727000000
1688 2 73.1719574036 42.2903571429 52.7592000000
1689 1 74.2789449036 44.2078571429 51.8097000000
1690 2 76.4931306179 44.2078571429 52.7592000000
1691 1 77.6002234750 42.2903571429 51.8097000000
1692 2 73.1719574036 42.2903571429 48.6232000000
1693 1 74.2789449036 44.2078571429 49.5727000000
1694 2 76.4931306179 44.2078571429 48.6232000000
1695 1 77.6002234750 42.2903571429 49.5727000000
1696 2 79.8143353129 38.4553571429 52.7592000000
1697 1 80.9214281700 40.3728571429 51.8097000000
1698 2 83.1355085271 40.3728571429 52.7592000000
1699 1 84.2426013843 38.4553571429 51.8097000000
1700 2 79.8143353129 38.4553571429 48.6232000000
1701 1 84.2426013843 38.4553571429 49.5727000000
1702 2 79.8143353129 42.2903571429 52.7592000000
1703 1 80.9214281700 44.2078571429 51.8097000000
1704 2 83.1355085271 44.2078571429 52.7592000000
1705 1 84.2426013843 42.2903571429 51.8097000000
1706 2 79.8143353129 42.2903571429 48.6232000000
1707 1 80.9214281700 44.2078571429 49.5727000000
1708 2 83.1355085271 44.2078571429 48.6232000000
1709 1 84.2426013843 42.2903571429 49.5727000000
1710 2 86.4567870986 38.4553571429 52.7592000000
1711 1 87.5637745986 40.3728571429 51.8097000000
1712 2 89.7779603129 40.3728571429 52.7592000000
1713 1 90.8850531700 38.4553571429 51.8097000000
1714 2 86.4567870986 38.4553571429 48.6232000000
1715 1 87.5637745986 40.3728571429 49.5727000000
1716 2 89.7779603129 40.3728571429 48.6232000000
1717 1 90.8850531700 38.4553571429 49.5727000000
1718 2 86.4567870986 42.2903571429 52.7592000000
1719 1 87.5637745986 44.2078571429 51.8097000000
1720 2 89.7779603129 44.2078571429 52.7592000000
1721 2 86.4567870986 42.2903571429 48.6232000000
1722 1 87.5637745986 44.2078571429 49.5727000000
1723 2 89.7779603129 44.2078571429 48.6232000000
1724 1 90.8850531700 42.2903571429 49.5727000000
1725 2 93.0991650079 38.4553571429 52.7592000000
1726 1 94.2062578650 40.3728571429 51.8097000000
1727 2 96.4203382221 40.3728571429 52.7592000000
1728 1 97.5274310793 38.4553571429 51.8097000000
1729 2 93.0991650079 38.4553571429 48.6232000000
1730 1 94.2062578650 40.3728571429 49.5727000000
1731 2 96.4203382221 40.3728571429 48.6232000000
1732 1 97.5274310793 38.4553571429 49.5727000000
1733 1 94.2062578650 44.2078571429 51.8097000000
1734 2 96.4203382221 44.2078571429 52.7592000000
1735 1 97.5274310793 42.2903571429 51.8097000000
1736 2 93.0991650079 42.2903571429 48.6232000000
1737 1 94.2062578650 44.2078571429 49.5727000000
1738 2 96.4203382221 44.2078571429 48.6232000000
1739 1 97.5274310793 42.2903571429 49.5727000000
1740 2 99.7416167936 38.4553571429 52.7592000000
1741 1 100.8486042936 40.3728571429 51.8097000000
1742 2 103.0627900079 40.3728571429 52.7592000000
1743 1 104.1698828650 38.4553571429 51.8097000000
1744 2 99.7416167936 38.4553571429 48.6232000000
1745 1 100.8486042936 40.3728571429 49.5727000000
1746 2 103.0627900079 40.3728571429 48.6232000000
1747 1 104.1698828650 38.4553571429 49.5727000000
1748 2 99.7416167936 42.2903571429 52.7592000000
1749 1 100.8486042936 44.2078571429 51.8097000000
1750 2 103.0627900079 44.2078571429 52.7592000000
1751 1 104.1698828650 42.2903571429 51.8097000000
1752 2 99.7416167936 42.2903571429 48.6232000000
1753 1 100.8486042936 44.2078571429 49.5727000000
1754 2 103.0627900079 44.2078571429 48.6232000000
1755 2 106.3839947029 38.4553571429 52.7592000000
1756 1 107.4910875600 40.3728571429 51.8097000000
1757 2 109.7051679171 40.3728571429 52.7592000000
1758 1 110.8122607743 38.4553571429 51.8097000000
1759 2 106.3839947029 38.4553571429 48.6232000000
1760 1 107.4910875600 40.3728571429 49.5727000000
1761 2 109.7051679171 40.3728571429 48.6232000000
1762 1 110.8122607743 38.4553571429 49.5727000000
1763 2 106.3839947029 42.2903571429 52.7592000000
1764 1 107.4910875600 44.2078571429 51.8097000000
1765 2 109.7051679171 44.2078571429 52.7592000000
1766 1 110.8122607743 42.2903571429 51.8097000000
1767 1 107.4910875600 44.2078571429 49.5727000000
1768 2 109.7051679171 44.2078571429 48.6232000000
1769 1 110.8122607743 42.2903571429 49.5727000000
1770 2 113.0264464886 38.4553571429 52.7592000000
1771 1 114.1334339886 40.3728571429 51.8097000000
1772 2 116.3476197029 40.3728571429 52.7592000000
1773 1 117.4547125600 38.4553571429 51.8097000000
1774 2 113.0264464886 38.4553571429 48.6232000000
1775 2 116.3476197029 40.3728571429 48.6232000000
1776 1 117.4547125600 38.4553571429 49.5727000000
1777 2 113.0264464886 42.2903571429 52.7592000000
1778 1 114.1334339886 44.2078571429 51.8097000000
1779 2 116.3476197029 44.2078571429 52.7592000000
1780 1 117.4547125600 42.2903571429 51.8097000000
1781 1 114.1334339886 44.2078571429 49.5727000000
1782 2 116.3476197029 44.2078571429 48.6232000000
1783 1 117.4547125600 42.2903571429 49.5727000000
1784 2 119.6688243979 38.4553571429 52.7592000000
1785 1 120.7759172550 40.3728571429 51.8097000000
1786 2 122.9899976121 40.3728571429 52.7592000000
1787 1 124.0970904693 38.4553571429 51.8097000000
1788 2 119.6688243979 38.4553571429 48.6232000000
1789 1 120.7759172550 40.3728571429 49.5727000000
1790 2 122.9899976121 40.3728571429 48.6232000000
1791 1 124.0970904693 38.4553571429 49.5727000000
1792 2 119.6688243979 42.2903571429 52.7592000000
1793 1 120.7759172550 44.2078571429 51.8097000000
1794 2 122.9899976121 44.2078571429 52.7592000000
1795 1 124.0970904693 42.2903571429 51.8097000000
1796 2 119.6688243979 42.2903571429 48.6232000000
1797 1 120.7759172550 44.2078571429 49.5727000000
1798 2 122.9899976121 44.2078571429 48.6232000000
1799 1 124.0970904693 42.2903571429 49.5727000000
1800 2 126.3112761836 38.4553571429 52.7592000000
1801 1 127.4182636836 40.3728571429 51.8097000000
1802 2 129.6324493979 40.3728571429 52.7592000000
1803 1 130.7395422550 38.4553571429 51.8097000000
1804 2 126.3112761836 38.4553571429 48.6232000000
1805 1 127.4182636836 40.3728571429 49.5727000000
1806 2 129.6324493979 40.3728571429 48.6232000000
1807 1 130.7395422550 38.4553571429 49.5727000000
1808 2 126.3112761836 42.2903571429 52.7592000000
1809 1 127.4182636836 44.2078571429 51.8097000000
1810 2 129.6324493979 44.2078571429 52.7592000000
1811 1 130.7395422550 42.2903571429 51.8097000000
1812 2 126.3112761836 42.2903571429 48.6232000000
1813 2 129.6324493979 44.2078571429 48.6232000000
1814 1 130.7395422550 42.2903571429 49.5727000000
1815 2 0.1053571429 46.1253571429 52.7592000000
1816 1 1.2124500000 48.0428571429 51.8097000000
1817 2 3.4265303571 48.0428571429 52.7592000000
1818 1 4.5336232143 46.1253571429 51.8097000000
1819 2 0.1053571429 46.1253571429 48.6232000000
1820 1 1.2124500000 48.0428571429 49.5727000000
1821 2 3.4265303571 48.0428571429 48.6232000000
1822 1 4.5336232143 46.1253571429 49.5727000000
1823 2 0.1053571429 49.9603571429 52.7592000000
1824 1 1.2124500000 51.8778571429 51.8097000000
1825 2 3.4265303571 51.8778571429 52.7592000000
1826 1 4.5336232143 49.9603571429 51.8097000000
1827 2 0.1053571429 49.9603571429 48.6232000000
1828 1 1.2124500000 51.8778571429 49.5727000000
1829 2 3.4265303571 51.8778571429 48.6232000000
1830 1 4.5336232143 49.9603571429 49.5727000000
1831 2 6.7478089286 46.1253571429 52.7592000000
1832 1 7.8547964286 48.0428571429 51.8097000000
1833 2 10.0689821429 48.0428571429 52.7592000000
1834 1 11.1760750000 46.1253571429 51.8097000000
1835 2 6.7478089286 46.1253571429 48.6232000000
1836 1 7.8547964286 48.0428571429 49.5727000000
1837 2 10.0689821429 48.0428571429 48.6232000000
1838 1 11.1760750000 46.1253571429 49.5727000000
1839 2 6.7478089286 49.9603571429 52.7592000000
1840 1 7.8547964286 51.8778571429 51.8097000000
1841 2 10.0689821429 51.8778571429 52.7592000000
1842 1 11.1760750000 49.9603571429 51.8097000000
1843 2 6.7478089286 49.9603571429 48.6232000000
1844 1 7.8547964286 51.8778571429 49.5727000000
1845 2 10.0689821429 51.8778571429 48.6232000000
1846 1 11.1760750000 49.9603571429 49.5727000000
1847 2 13.3901868379 46.1253571429 52.7592000000
1848 1 14.4972796950 48.0428571429 51.8097000000
1849 2 16.7113600521 48.0428571429 52.7592000000
1850 1 17.8184529093 46.1253571429 51.8097000000
1851 2 13.3901868379 46.1253571429 48.6232000000
1852 1 14.4972796950 48.0428571429 49.5727000000
1853 2 16.7113600521 48.0428571429 48.6232000000
1854 1 17.8184529093 46.1253571429 49.5727000000
1855 2 13.3901868379 49.9603571429 52.7592000000
1856 1 14.4972796950 51.8778571429 51.8097000000
1857 2 16.7113600521 51.8778571429 52.7592000000
1858 1 17.8184529093 49.9603571429 51.8097000000
1859 2 13.3901868379 49.9603571429 48.6232000000
1860 1 14.4972796950 51.8778571429 49.5727000000
1861 2 16.7113600521 51.8778571429 48.6232000000
1862 1 17.8184529093 49.9603571429 49.5727000000
1863 2 20.0326386236 46.1253571429 52.7592000000
1864 1 21.1396261236 48.0428571429 51.8097000000
1865 2 23.3538118379 48.0428571429 52.7592000000
1866 1 24.4609046950 46.1253571429 51.8097000000
1867 2 20.0326386236 46.1253571429 48.6232000000
1868 1 21.1396261236 48.0428571429 49.5727000000
1869 2 23.3538118379 48.0428571429 48.6232000000
1870 1 24.4609046950 46.1253571429 49.5727000000
1871 2 20.0326386236 49.9603571429 52.7592000000
1872 1 21.1396261236 51.8778571429 51.8097000000
1873 2 23.3538118379 51.8778571429 52.7592000000
1874 1 24.4609046950 49.9603571429 51.8097000000
1875 2 20.0326386236 49.9603571429 48.6232000000
1876 1 21.1396261236 51.8778571429 49.5727000000
1877 2 23.3538118379 51.8778571429 48.6232000000
1878 1 24.4609046950 49.9603571429 49.5727000000
1879 2 26.6750165329 46.1253571429 52.7592000000
1880 1 27.7821093900 48.0428571429 51.8097000000
1881 2 29.9961897471 48.0428571429 52.7592000000
1882 1 31.1032826043 46.1253571429 51.8097000000
1883 2 26.6750165329 46.1253571429 48.6232000000
1884 1 27.7821093900 48.0428571429 49.5727000000
1885 2 29.9961897471 48.0428571429 48.6232000000
1886 1 31.1032826043 46.1253571429 49.5727000000
1887 2 26.6750165329 49.9603571429 52.7592000000
1888 1 27.7821093900 51.8778571429 51.8097000000
1889 2 29.9961897471 51.8778571429 52.7592000000
1890 1 31.1032826043 49.9603571429 51.8097000000
1891 2 26.6750165329 49.9603571429 48.6232000000
1892 1 27.7821093900 51.8778571429 49.5727000000
1893 2 29.9961897471 51.8778571429 48.6232000000
1894 1 31.1032826043 49.9603571429 49.5727000000
1895 2 33.3174683186 46.1253571429 52.7592000000
1896 1 34.4244558186 48.0428571429 51.8097000000
1897 2 36.6386415329 48.0428571429 52.7592000000
1898 1 37.7457343900 46.1253571429 51.8097000000
1899 2 33.3174683186 46.1253571429 48.6232000000
1900 2 36.6386415329 48.0428571429 48.6232000000
1901 1 37.7457343900 46.1253571429 49.5727000000
1902 2 33.3174683186 49.9603571429 52.7592000000
1903 1 34.4244558186 51.8778571429 51.8097000000
1904 2 36.6386415329 51.8778571429 52.7592000000
1905 1 37.7457343900 49.9603571429 51.8097000000
1906 1 34.4244558186 51.8778571429 49.5727000000
1907 2 36.6386415329 51.8778571429 48.6232000000
1908 1 37.7457343900 49.9603571429 49.5727000000
1909 2 39.9598462279 46.1253571429 52.7592000000
1910 1 41.0669390850 48.0428571429 51.8097000000
1911 2 43.2810194421 48.0428571429 52.7592000000
1912 1 44.3881122993 46.1253571429 51.8097000000
1913 2 39.9598462279 46.1253571429 48.6232000000
1914 1 41.0669390850 48.0428571429 49.5727000000
1915 2 43.2810194421 48.0428571429 48.6232000000
1916 1 44.3881122993 46.1253571429 49.5727000000
1917 2 39.9598462279 49.9603571429 52.7592000000
1918 1 41.0669390850 51.8778571429 51.8097000000
1919 2 43.2810194421 51.8778571429 52.7592000000
1920 1 44.3881122993 49.9603571429 51.8097000000
1921 2 39.9598462279 49.9603571429 48.6232000000
1922 1 41.0669390850 51.8778571429 49.5727000000
1923 2 43.2810194421 51.8778571429 48.6232000000
1924 1 44.3881122993 49.9603571429 49.5727000000
1925 2 46.6022980136 46.1253571429 52.7592000000
1926 1 47.7092855136 48.0428571429 51.8097000000
1927 2 49.9234712279 48.0428571429 52.7592000000
1928 1 51.0305640850 46.1253571429 51.8097000000
1929 2 46.6022980136 46.1253571429 48.6232000000
1930 1 47.7092855136 48.0428571429 49.5727000000
1931 2 49.9234712279 48.0428571429 48.6232000000
1932 1 51.0305640850 46.1253571429 49.5727000000
1933 2 46.6022980136 49.9603571429 52.7592000000
1934 2 49.9234712279 51.8778571429 52.7592000000
1935 1 51.0305640850 49.9603571429 51.8097000000
1936 2 46.6022980136 49.9603571429 48.6232000000
1937 1 47.7092855136 51.8778571429 49.5727000000
1938 2 49.9234712279 51.8778571429 48.6232000000
1939 1 51.0305640850 49.9603571429 49.5727000000
1940 2 53.2446759229 46.1253571429 52.7592000000
1941 1 54.3517687800 48.0428571429 51.8097000000
1942 2 56.5658491371 48.0428571429 52.7592000000
1943 1 57.6729419943 46.1253571429 51.8097000000
1944 2 53.2446759229 46.1253571429 48.6232000000
1945 1 54.3517687800 48.0428571429 49.5727000000
1946 2 56.5658491371 48.0428571429 48.6232000000
1947 2 53.2446759229 49.9603571429 52.7592000000
1948 1 54.3517687800 51.8778571429 51.8097000000
1949 2 56.5658491371 51.8778571429 52.7592000000
1950 1 57.6729419943 49.9603571429 51.8097000000
1951 2 53.2446759229 49.9603571429 48.6232000000
1952 1 54.3517687800 51.8778571429 49.5727000000
1953 2 56.5658491371 51.8778571429 48.6232000000
1954 1 57.6729419943 49.9603571429 49.5727000000
1955 2 59.8871277086 46.1253571429 52.7592000000
1956 1 60.9941152086 48.0428571429 51.8097000000
1957 2 63.2083009229 48.0428571429 52.7592000000
1958 1 64.3153937800 46.1253571429 51.8097000000
1959 2 59.8871277086 46.1253571429 48.6232000000
1960 1 60.9941152086 48.0428571429 49.5727000000
1961 2 63.2083009229 48.0428571429 48.6232000000
1962 1 64.3153937800 46.1253571429 49.5727000000
1963 2 59.8871277086 49.9603571429 52.7592000000
1964 1 60.9941152086 51.8778571429 51.8097000000
1965 2 63.2083009229 51.8778571429 52.7592000000
1966 1 64.3153937800 49.9603571429 51.8097000000
1967 2 59.8871277086 49.9603571429 48.6232000000
1968 1 60.9941152086 51.8778571429 49.5727000000
1969 2 63.2083009229 51.8778571429 48.6232000000
1970 1 64.3153937800 49.9603571429 49.5727000000
1971 2 66.5295056179 46.1253571429 52.7592000000
1972 1 67.6365984750 48.0428571429 51.8097000000
1973 2 69.8506788321 48.0428571429 52.7592000000
1974 1 70.9577716893 46.1253571429 51.8097000000
1975 2 66.5295056179 46.1253571429 48.6232000000
1976 1 67.6365984750 48.0428571429 49.5727000000
1977 2 69.8506788321 48.0428571429 48.6232000000
1978 1 70.9577716893 46.1253571429 49.5727000000
1979 2 66.5295056179 49.9603571429 52.7592000000
1980 1 67.6365984750 51.8778571429 51.8097000000
1981 2 69.8506788321 51.8778571429 52.7592000000
1982 1 70.9577716893 49.9603571429 51.8097000000
1983 2 66.5295056179 49.9603571429 48.6232000000
1984 1 67.6365984750 51.8778571429 49.5727000000
1985 2 69.8506788321 51.8778571429 48.6232000000
1986 1 70.9577716893 49.9603571429 49.5727000000
1987 2 73.1719574036 46.1253571429 52.7592000000
1988 1 74.2789449036 48.0428571429 51.8097000000
1989 2 76.4931306179 48.0428571429 52.7592000000
1990 1 77.6002234750 46.1253571429 51.8097000000
1991 2 73.1719574036 46.1253571429 48.6232000000
1992 1 74.2789449036 48.0428571429 49.5727000000
1993 2 76.4931306179 48.0428571429 48.6232000000
1994 1 77.6002234750 46.1253571429 49.5727000000
1995 2 73.1719574036 49.9603571429 52.7592000000
1996 1 74.2789449036 51.8778571429 51.8097000000
1997 2 76.4931306179 51.8778571429 52.7592000000
1998 1 77.6002234750 49.9603571429 51.8097000000
1999 2 73.1719574036 49.9603571429 48.6232000000
2000 1 74.2789449036 51.8778571429 49.5727000000
2001 2 76.4931306179 51.8778571429 48.6232000000
2002 1 77.6002234750 49.9603571429 49.5727000000
2003 2 79.8143353129 46.1253571429 52.7592000000
2004 1 80.9214281700 48.0428571429 51.8097000000
2005 1 84.2426013843 46.1253571429 51.8097000000
2006 2 79.8143353129 46.1253571429 48.6232000000
2007 1 80.9214281700 48.0428571429 49.5727000000
2008 2 83.1355085271 48.0428571429 48.6232000000
2009 1 84.2426013843 46.1253571429 49.5727000000
2010 2 79.8143353129 49.9603571429 52.7592000000
2011 1 80.9214281700 51.8778571429 51.8097000000
2012 2 83.1355085271 51.8778571429 52.7592000000
2013 2 79.8143353129 49.9603571429 48.6232000000
2014 1 80.9214281700 51.8778571429 49.5727000000
2015 2 83.1355085271 51.8778571429 48.6232000000
2016 1 84.2426013843 49.9603571429 49.5727000000
2017 2 86.4567870986 46.1253571429 52.7592000000
2018 1 87.5637745986 48.0428571429 51.8097000000
2019 2 89.7779603129 48.0428571429 52.7592000000
2020 1 90.8850531700 46.1253571429 51.8097000000
2021 2 86.4567870986 46.1253571429 48.6232000000
2022 1 87.5637745986 48.0428571429 49.5727000000
2023 2 89.7779603129 48.0428571429 48.6232000000
2024 1 90.8850531700 46.1253571429 49.5727000000
2025 2 86.4567870986 49.9603571429 52.7592000000
2026 1 87.5637745986 51.8778571429 51.8097000000
2027 2 89.7779603129 51.8778571429 52.7592000000
2028 1 90.8850531700 49.9603571429 51.8097000000
2029 2 86.4567870986 49.9603571429 48.6232000000
2030 1 87.5637745986 51.8778571429 49.5727000000
2031 2 89.7779603129 51.8778571429 48.6232000000
2032 1 90.8850531700 49.9603571429 49.5727000000
2033 2 93.0991650079 46.1253571429 52.7592000000
2034 1 94.2062578650 48.0428571429 51.8097000000
2035 2 96.4203382221 48.0428571429 52.7592000000
2036 1 97.5274310793 46.1253571429 51.8097000000
2037 2 93.0991650079 46.1253571429 48.6232000000
2038 1 94.2062578650 48.0428571429 49.5727000000
2039 2 96.4203382221 48.0428571429 48.6232000000
2040 1 97.5274310793 46.1253571429 49.5727000000
2041 2 93.0991650079 49.9603571429 52.7592000000
2042 1 94.2062578650 51.8778571429 51.8097000000
2043 2 96.4203382221 51.8778571429 52.7592000000
2044 1 97.5274310793 49.9603571429 51.8097000000
2045 2 93.0991650079 49.9603571429 48.6232000000
2046 1 94.2062578650 51.8778571429 49.5727000000
2047 2 96.4203382221 51.8778571429 48.6232000000
2048 1 97.5274310793 49.9603571429 49.5727000000
2049 2 99.7416167936 46.1253571429 52.7592000000
2050 1 100.8486042936 48.0428571429 51.8097000000
2051 2 103.0627900079 48.0428571429 52.7592000000
2052 1 104.1698828650 46.1253571429 51.8097000000
2053 2 99.7416167936 46.1253571429 48.6232000000
2054 1 100.8486042936 48.0428571429 49.5727000000
2055 2 103.0627900079 48.0428571429 48.6232000000
2056 1 104.1698828650 46.1253571429 49.5727000000
2057 2 99.7416167936 49.9603571429 52.7592000000
2058 2 103.0627900079 51.8778571429 52.7592000000
2059 1 104.1698828650 49.9603571429 51.8097000000
2060 2 99.7416167936 49.9603571429 48.6232000000
2061 1 100.8486042936 51.8778571429 49.5727000000
2062 2 103.0627900079 51.8778571429 48.6232000000
2063 1 104.1698828650 49.9603571429 49.5727000000
2064 2 106.3839947029 46.1253571429 52.7592000000
2065 1 107.4910875600 48.0428571429 51.8097000000
2066 2 109.7051679171 48.0428571429 52.7592000000
2067 1 110.8122607743 46.1253571429 51.8097000000
2068 2 106.3839947029 46.1253571429 48.6232000000
2069 1 107.4910875600 48.0428571429 49.5727000000
2070 2 109.7051679171 48.0428571429 48.6232000000
2071 1 110.8122607743 46.1253571429 49.5727000000
2072 2 106.3839947029 49.9603571429 52.7592000000
2073 1 107.4910875600 51.8778571429 51.8097000000
2074 2 109.7051679171 51.8778571429 52.7592000000
2075 1 110.8122607743 49.9603571429 51.8097000000
2076 2 106.3839947029 49.9603571429 48.6232000000
2077 1 107.4910875600 51.8778571429 49.5727000000
2078 2 109.7051679171 51.8778571429 48.6232000000
2079 1 110.8122607743 49.9603571429 49.5727000000
2080 2 113.0264464886 46.1253571429 52.7592000000
2081 1 114.1334339886 48.0428571429 51.8097000000
2082 2 116.3476197029 48.0428571429 52.7592000000
2083 1 117.4547125600 46.1253571429 51.8097000000
2084 2 113.0264464886 46.1253571429 48.6232000000
2085 1 114.1334339886 48.0428571429 49.5727000000
2086 2 116.3476197029 48.0428571429 48.6232000000
2087 1 117.4547125600 46.1253571429 49.5727000000
2088 2 113.0264464886 49.9603571429 52.7592000000
2089 1 114.1334339886 51.8778571429 51.8097000000
2090 2 116.3476197029 51.8778571429 52.7592000000
2091 1 117.4547125600 49.9603571429 51.8097000000
2092 2 113.0264464886 49.9603571429 48.6232000000
2093 1 114.1334339886 51.8778571429 49.5727000000
2094 2 116.3476197029 51.8778571429 48.6232000000
2095 1 117.4547125600 49.9603571429 49.5727000000
2096 2 119.6688243979 46.1253571429 52.7592000000
2097 1 120.7759172550 48.0428571429 51.8097000000
2098 2 122.9899976121 48.0428571429 52.7592000000
2099 1 124.0970904693 46.1253571429 51.8097000000
2100 2 119.6688243979 46.1253571429 48.6232000000
2101 1 120.7759172550 48.0428571429 49.5727000000
2102 2 122.9899976121 48.0428571429 48.6232000000
2103 1 124.0970904693 46.1253571429 49.5727000000
2104 2 119.6688243979 49.9603571429 52.7592000000
2105 1 120.7759172550 51.8778571429 51.8097000000
2106 2 122.9899976121 51.8778571429 52.7592000000
2107 1 124.0970904693 49.9603571429 51.8097000000
2108 2 119.6688243979 49.9603571429 48.6232000000
2109 1 124.0970904693 49.9603571429 49.5727000000
2110 2 126.3112761836 46.1253571429 52.7592000000
2111 1 127.4182636836 48.0428571429 51.8097000000
2112 2 129.6324493979 48.0428571429 52.7592000000
2113 1 130.7395422550 46.1253571429 51.8097000000
2114 1 127.4182636836 48.0428571429 49.5727000000
2115 2 129.6324493979 48.0428571429 48.6232000000
2116 1 130.7395422550 46.1253571429 49.5727000000
2117 2 126.3112761836 49.9603571429 52.7592000000
2118 1 127.4182636836 51.8778571429 51.8097000000
2119 2 129.6324493979 51.8778571429 52.7592000000
2120 1 130.7395422550 49.9603571429 51.8097000000
2121 2 126.3112761836 49.9603571429 48.6232000000
2122 1 127.4182636836 51.8778571429 49.5727000000
2123 2 129.6324493979 51.8778571429 48.6232000000
2124 1 130.7395422550 49.9603571429 49.5727000000
2125 2 0.1053571429 53.7953571429 52.7592000000
2126 1 1.2124500000 55.7128571429 51.8097000000
2127 2 3.4265303571 55.7128571429 52.7592000000
2128 1 4.5336232143 53.7953571429 51.8097000000
2129 2 0.1053571429 53.7953571429 48.6232000000
2130 1 1.2124500000 55.7128571429 49.5727000000
2131 2 3.4265303571 55.7128571429 48.6232000000
2132 1 4.5336232143 53.7953571429 49.5727000000
2133 2 0.1053571429 57.6303571429 52.7592000000
2134 1 1.2124500000 59.5478571429 51.8097000000
2135 2 0.1053571429 57.6303571429 48.6232000000
2136 1 1.2124500000 59.5478571429 49.5727000000
2137 2 3.4265303571 59.5478571429 48.6232000000
2138 1 4.5336232143 57.6303571429 49.5727000000
2139 2 6.7478089286 53.7953571429 52.7592000000
2140 1 7.8547964286 55.7128571429 51.8097000000
2141 2 10.0689821429 55.7128571429 52.7592000000
2142 1 11.1760750000 53.7953571429 51.8097000000
2143 2 6.7478089286 53.7953571429 48.6232000000
2144 1 7.8547964286 55.7128571429 49.5727000000
2145 2 10.0689821429 55.7128571429 48.6232000000
2146 1 11.1760750000 53.7953571429 49.5727000000
2147 2 6.7478089286 57.6303571429 52.7592000000
2148 1 7.8547964286 59.5478571429 51.8097000000
2149 2 10.0689821429 59.5478571429 52.7592000000
2150 2 6.7478089286 57.6303571429 48.6232000000
2151 1 7.8547964286 59.5478571429 49.5727000000
2152 2 10.0689821429 59.5478571429 48.6232000000
2153 1 11.1760750000 57.6303571429 49.5727000000
2154 2 13.3901868379 53.7953571429 52.7592000000
2155 1 14.4972796950 55.7128571429 51.8097000000
2156 2 16.7113600521 55.7128571429 52.7592000000
2157 1 17.8184529093 53.7953571429 51.8097000000
2158 2 13.3901868379 53.7953571429 48.6232000000
2159 1 14.4972796950 55.7128571429 49.5727000000
2160 2 16.7113600521 55.7128571429 48.6232000000
2161 1 17.8184529093 53.7953571429 49.5727000000
2162 1 14.4972796950 59.5478571429 51.8097000000
2163 2 16.7113600521 59.5478571429 52.7592000000
2164 1 17.8184529093 57.6303571429 51.8097000000
2165 2 13.3901868379 57.6303571429 48.6232000000
2166 1 14.4972796950 59.5478571429 49.5727000000
2167 2 16.7113600521 59.5478571429 48.6232000000
2168 1 17.8184529093 57.6303571429 49.5727000000
2169 2 20.0326386236 53.7953571429 52.7592000000
2170 1 21.1396261236 55.7128571429 51.8097000000
2171 2 23.3538118379 55.7128571429 52.7592000000
2172 1 24.4609046950 53.7953571429 51.8097000000
2173 2 20.0326386236 53.7953571429 48.6232000000
2174 1 21.1396261236 55.7128571429 49.5727000000
2175 2 23.3538118379 55.7128571429 48.6232000000
2176 1 24.4609046950 53.7953571429 49.5727000000
2177 2 20.0326386236 57.6303571429 52.7592000000
2178 1 21.1396261236 59.5478571429 51.8097000000
2179 2 23.3538118379 59.5478571429 52.7592000000
2180 2 20.0326386236 57.6303571429 48.6232000000
2181 1 21.1396261236 59.5478571429 49.5727000000
2182 2 23.3538118379 59.5478571429 48.6232000000
2183 1 24.4609046950 57.6303571429 49.5727000000
2184 2 26.6750165329 53.7953571429 52.7592000000
2185 1 27.7821093900 55.7128571429 51.8097000000
2186 2 29.9961897471 55.7128571429 52.7592000000
2187 1 31.1032826043 53.7953571429 51.8097000000
2188 2 26.6750165329 53.7953571429 48.6232000000
2189 1 27.7821093900 55.7128571429 49.5727000000
2190 2 29.9961897471 55.7128571429 48.6232000000
2191 1 31.1032826043 53.7953571429 49.5727000000
2192 1 27.7821093900 59.5478571429 51.8097000000
2193 2 29.9961897471 59.5478571429 52.7592000000
2194 1 31.1032826043 57.6303571429 51.8097000000
2195 2 26.6750165329 57.6303571429 48.6232000000
2196 1 27.7821093900 59.5478571429 49.5727000000
2197 2 29.9961897471 59.5478571429 48.6232000000
2198 1 31.1032826043 57.6303571429 49.5727000000
2199 2 33.3174683186 53.7953571429 52.7592000000
2200 1 34.4244558186 55.7128571429 51.8097000000
2201 2 36.6386415329 55.7128571429 52.7592000000
2202 1 37.7457343900 53.7953571429 51.8097000000
2203 2 33.3174683186 53.7953571429 48.6232000000
2204 1 34.4244558186 55.7128571429 49.5727000000
2205 2 36.6386415329 55.7128571429 48.6232000000
2206 1 37.7457343900 53.7953571429 49.5727000000
2207 2 33.3174683186 57.6303571429 52.7592000000
2208 1 34.4244558186 59.5478571429 51.8097000000
2209 2 36.6386415329 59.5478571429 52.7592000000
2210 1 37.7457343900 57.6303571429 51.8097000000
2211 2 33.3174683186 57.6303571429 48.6232000000
2212 1 34.4244558186 59.5478571429 49.5727000000
2213 2 36.6386415329 59.5478571429 48.6232000000
2214 2 39.9598462279 53.7953571429 52.7592000000
2215 1 41.0669390850 55.7128571429 51.8097000000
2216 2 43.2810194421 55.7128571429 52.7592000000
2217 1 44.3881122993 53.7953571429 51.8097000000
2218 2 39.9598462279 53.7953571429 48.6232000000
2219 1 41.0669390850 55.7128571429 49.5727000000
2220 2 43.2810194421 55.7128571429 48.6232000000
2221 1 44.3881122993 53.7953571429 49.5727000000
2222 2 39.9598462279 57.6303571429 52.7592000000
2223 1 41.0669390850 59.5478571429 51.8097000000
2224 2 43.2810194421 59.5478571429 52.7592000000
2225 1 44.3881122993 57.6303571429 51.8097000000
2226 1 41.0669390850 59.5478571429 49.5727000000
2227 2 43.2810194421 59.5478571429 48.6232000000
2228 1 44.3881122993 57.6303571429 49.5727000000
2229 1 47.7092855136 55.7128571429 51.8097000000
2230 2 49.9234712279 55.7128571429 52.7592000000
2231 1 51.0305640850 53.7953571429 51.8097000000
2232 2 46.6022980136 53.7953571429 48.6232000000
2233 1 47.7092855136 55.7128571429 49.5727000000
2234 2 49.9234712279 55.7128571429 48.6232000000
2235 1 51.0305640850 53.7953571429 49.5727000000
2236 2 46.6022980136 57.6303571429 52.7592000000
2237 1 47.7092855136 59.5478571429 51.8097000000
2238 2 49.9234712279 59.5478571429 52.7592000000
2239 1 51.0305640850 57.6303571429 51.8097000000
2240 2 46.6022980136 57.6303571429 48.6232000000
2241 1 47.7092855136 59.5478571429 49.5727000000
2242 2 49.9234712279 59.5478571429 48.6232000000
2243 1 51.0305640850 57.6303571429 49.5727000000
2244 2 53.2446759229 53.7953571429 52.7592000000
2245 1 54.3517687800 55.7128571429 51.8097000000
2246 2 56.5658491371 55.7128571429 52.7592000000
2247 1 57.6729419943 53.7953571429 51.8097000000
2248 2 53.2446759229 53.7953571429 48.6232000000
2249 1 54.3517687800 55.7128571429 49.5727000000
2250 2 56.5658491371 55.7128571429 48.6232000000
2251 1 57.6729419943 53.7953571429 49.5727000000
2252 2 53.2446759229 57.6303571429 52.7592000000
2253 1 54.3517687800 59.5478571429 51.8097000000
2254 2 56.5658491371 59.5478571429 52.7592000000
2255 1 57.6729419943 57.6303571429 51.8097000000
2256 2 53.2446759229 57.6303571429 48.6232000000
2257 1 54.3517687800 59.5478571429 49.5727000000
2258 2 56.5658491371 59.5478571429 48.6232000000
2259 1 57.6729419943 57.6303571429 49.5727000000
2260 2 59.8871277086 53.7953571429 52.7592000000
2261 1 60.9941152086 55.7128571429 51.8097000000
2262 2 63.2083009229 55.7128571429 52.7592000000
2263 1 64.3153937800 53.7953571429 51.8097000000
2264 2 59.8871277086 53.7953571429 48.6232000000
2265 1 60.9941152086 55.7128571429 49.5727000000
2266 2 63.2083009229 55.7128571429 48.6232000000
2267 1 64.3153937800 53.7953571429 49.5727000000
2268 2 59.8871277086 57.6303571429 52.7592000000
2269 1 60.9941152086 59.5478571429 51.8097000000
2270 2 63.2083009229 59.5478571429 52.7592000000
2271 1 64.3153937800 57.6303571429 51.8097000000
2272 2 59.8871277086 57.6303571429 48.6232000000
2273 1 60.9941152086 59.5478571429 49.5727000000
2274 2 63.2083009229 59.5478571429 48.6232000000
2275 1 64.3153937800 57.6303571429 49.5727000000
2276 2 66.5295056179 53.7953571429 52.7592000000
2277 1 70.9577716893 53.7953571429 51.8097000000
2278 2 66.5295056179 53.7953571429 48.6232000000
2279 1 67.6365984750 55.7128571429 49.5727000000
2280 2 69.8506788321 55.7128571429 48.6232000000
2281 1 70.9577716893 53.7953571429 49.5727000000
2282 2 66.5295056179 57.6303571429 52.7592000000
2283 1 67.6365984750 59.5478571429 51.8097000000
2284 2 69.8506788321 59.5478571429 52.7592000000
2285 1 70.9577716893 57.6303571429 51.8097000000
2286 2 66.5295056179 57.6303571429 48.6232000000
2287 1 67.6365984750 59.5478571429 49.5727000000
2288 2 69.8506788321 59.5478571429 48.6232000000
2289 1 70.9577716893 57.6303571429 49.5727000000
2290 2 73.1719574036 53.7953571429 52.7592000000
2291 1 74.2789449036 55.7128571429 51.8097000000
2292 2 76.4931306179 55.7128571429 52.7592000000
2293 1 77.6002234750 53.7953571429 51.8097000000
2294 2 73.1719574036 53.7953571429 48.6232000000
2295 1 74.2789449036 55.7128571429 49.5727000000
2296 2 76.4931306179 55.7128571429 48.6232000000
2297 1 77.6002234750 53.7953571429 49.5727000000
2298 2 73.1719574036 57.6303571429 52.7592000000
2299 1 74.2789449036 59.5478571429 51.8097000000
2300 2 76.4931306179 59.5478571429 52.7592000000
2301 1 77.6002234750 57.6303571429 51.8097000000
2302 2 73.1719574036 57.6303571429 48.6232000000
2303 1 74.2789449036 59.5478571429 49.5727000000
2304 2 76.4931306179 59.5478571429 48.6232000000
2305 1 77.6002234750 57.6303571429 49.5727000000
2306 2 79.8143353129 53.7953571429 52.7592000000
2307 1 80.9214281700 55.7128571429 51.8097000000
2308 2 83.1355085271 55.7128571429 52.7592000000
2309 1 84.2426013843 53.7953571429 51.8097000000
2310 2 79.8143353129 53.7953571429 48.6232000000
2311 1 80.9214281700 55.7128571429 49.5727000000
2312 2 83.1355085271 55.7128571429 48.6232000000
2313 1 84.2426013843 53.7953571429 49.5727000000
2314 2 79.8143353129 57.6303571429 52.7592000000
2315 1 80.9214281700 59.5478571429 51.8097000000
2316 2 83.1355085271 59.5478571429 52.7592000000
2317 1 84.2426013843 57.6303571429 51.8097000000
2318 2 79.8143353129 57.6303571429 48.6232000000
2319 1 80.9214281700 59.5478571429 49.5727000000
2320 2 86.4567870986 53.7953571429 52.7592000000
2321 1 87.5637745986 55.7128571429 51.8097000000
2322 2 89.7779603129 55.7128571429 52.7592000000
2323 1 90.8850531700 53.7953571429 51.8097000000
2324 2 86.4567870986 53.7953571429 48.6232000000
2325 1 87.5637745986 55.7128571429 49.5727000000
2326 2 89.7779603129 55.7128571429 48.6232000000
2327 2 86.4567870986 57.6303571429 52.7592000000
2328 1 87.5637745986 59.5478571429 51.8097000000
2329 2 89.7779603129 59.5478571429 52.7592000000
2330 1 90.8850531700 57.6303571429 51.8097000000
2331 2 86.4567870986 57.6303571429 48.6232000000
2332 1 87.5637745986 59.5478571429 49.5727000000
2333 2 89.7779603129 59.5478571429 48.6232000000
2334 1 90.8850531700 57.6303571429 49.5727000000
2335 2 93.0991650079 53.7953571429 52.7592000000
2336 1 94.2062578650 55.7128571429 51.8097000000
2337 2 96.4203382221 55.7128571429 52.7592000000
2338 1 97.5274310793 53.7953571429 51.8097000000
2339 1 94.2062578650 55.7128571429 49.5727000000
2340 2 96.4203382221 55.7128571429 48.6232000000
2341 1 97.5274310793 53.7953571429 49.5727000000
2342 2 93.0991650079 57.6303571429 52.7592000000
2343 1 94.2062578650 59.5478571429 51.8097000000
2344 2 96.4203382221 59.5478571429 52.7592000000
2345 1 97.5274310793 57.6303571429 51.8097000000
2346 2 93.0991650079 57.6303571429 48.6232000000
2347 1 94.2062578650 59.5478571429 49.5727000000
2348 2 96.4203382221 59.5478571429 48.6232000000
2349 1 97.5274310793 57.6303571429 49.5727000000
2350 1 100.8486042936 55.7128571429 51.8097000000
2351 2 103.0627900079 55.7128571429 52.7592000000
2352 1 104.1698828650 53.7953571429 51.8097000000
2353 2 99.7416167936 53.7953571429 48.6232000000
2354 1 100.8486042936 55.7128571429 49.5727000000
2355 2 103.0627900079 55.7128571429 48.6232000000
2356 1 104.1698828650 53.7953571429 49.5727000000
2357 2 99.7416167936 57.6303571429 52.7592000000
2358 1 100.8486042936 59.5478571429 51.8097000000
2359 2 103.0627900079 59.5478571429 52.7592000000
2360 1 104.1698828650 57.6303571429 51.8097000000
2361 2 99.7416167936 57.6303571429 48.6232000000
2362 1 100.8486042936 59.5478571429 49.5727000000
2363 2 103.0627900079 59.5478571429 48.6232000000
2364 1 104.1698828650 57.6303571429 49.5727000000
2365 2 106.3839947029 53.7953571429 52.7592000000
2366 1 107.4910875600 55.7128571429 51.8097000000
2367 2 109.7051679171 55.7128571429 52.7592000000
2368 1 110.8122607743 53.7953571429 51.8097000000
2369 2 106.3839947029 53.7953571429 48.6232000000
2370 1 107.4910875600 55.7128571429 49.5727000000
2371 2 109.7051679171 55.7128571429 48.6232000000
2372 1 110.8122607743 53.7953571429 49.5727000000
2373 2 106.3839947029 57.6303571429 52.7592000000
2374 1 107.4910875600 59.5478571429 51.8097000000
2375 2 109.7051679171 59.5478571429 52.7592000000
2376 1 110.8122607743 57.6303571429 51.8097000000
2377 2 106.3839947029 57.6303571429 48.6232000000
2378 1 110.8122607743 57.6303571429 49.5727000000
2379 2 113.0264464886 53.7953571429 52.7592000000
2380 1 114.1334339886 55.7128571429 51.8097000000
2381 2 116.3476197029 55.7128571429 52.7592000000
2382 1 117.4547125600 53.7953571429 51.8097000000
2383 2 113.0264464886 53.7953571429 48.6232000000
2384 1 114.1334339886 55.7128571429 49.5727000000
2385 2 116.3476197029 55.7128571429 48.6232000000
2386 1 117.4547125600 53.7953571429 49.5727000000
2387 2 113.0264464886 57.6303571429 52.7592000000
2388 1 114.1334339886 59.5478571429 51.8097000000
2389 2 116.3476197029 59.5478571429 52.7592000000
2390 1 117.4547125600 57.6303571429 51.8097000000
2391 2 113.0264464886 57.6303571429 48.6232000000
2392 1 114.1334339886 59.5478571429 49.5727000000
2393 2 116.3476197029 59.5478571429 48.6232000000
2394 1 117.4547125600 57.6303571429 49.5727000000
2395 2 119.6688243979 53.7953571429 52.7592000000
2396 1 120.7759172550 55.7128571429 51.8097000000
2397 2 122.9899976121 55.7128571429 52.7592000000
2398 1 124.0970904693 53.7953571429 51.8097000000
2399 2 119.6688243979 53.7953571429 48.6232000000
2400 1 120.7759172550 55.7128571429 49.5727000000
2401 2 122.9899976121 55.7128571429 48.6232000000
2402 1 124.0970904693 53.7953571429 49.5727000000
2403 2 119.6688243979 57.6303571429 52.7592000000
2404 1 120.7759172550 59.5478571429 51.8097000000
2405 2 122.9899976121 59.5478571429 52.7592000000
2406 1 124.0970904693 57.6303571429 51.8097000000
2407 2 119.6688243979 57.6303571429 48.6232000000
2408 1 120.7759172550 59.5478571429 49.5727000000
2409 2 122.9899976121 59.5478571429 48.6232000000
2410 1 124.0970904693 57.6303571429 49.5727000000
2411 2 126.3112761836 53.7953571429 52.7592000000
2412 1 127.4182636836 55.7128571429 51.8097000000
2413 2 129.6324493979 55.7128571429 52.7592000000
2414 1 130.7395422550 53.7953571429 51.8097000000
2415 2 126.3112761836 53.7953571429 48.6232000000
2416 1 127.4182636836 55.7128571429 49.5727000000
2417 2 129.6324493979 55.7128571429 48.6232000000
2418 1 130.7395422550 53.7953571429 49.5727000000
2419 2 129.6324493979 59.5478571429 52.7592000000
2420 1 130.7395422550 57.6303571429 51.8097000000
2421 2 126.3112761836 57.6303571429 48.6232000000
2422 1 127.4182636836 59.5478571429 49.5727000000
2423 2 129.6324493979 59.5478571429 48.6232000000
2424 1 130.7395422550 57.6303571429 49.5727000000
2425 2 0.1053571429 61.4653571429 52.7592000000
2426 1 1.2124500000 63.3828571429 51.8097000000
2427 2 3.4265303571 63.3828571429 52.7592000000
2428 1 4.5336232143 61.4653571429 51.8097000000
2429 2 0.1053571429 61.4653571429 48.6232000000
2430 1 1.2124500000 63.3828571429 49.5727000000
2431 2 3.4265303571 63.3828571429 48.6232000000
2432 1 4.5336232143 61.4653571429 49.5727000000
2433 2 0.1053571429 65.3003571429 52.7592000000
2434 1 1.2124500000 67.2178571429 51.8097000000
2435 2 3.4265303571 67.2178571429 52.7592000000
2436 1 4.5336232143 65.3003571429 51.8097000000
2437 2 0.1053571429 65.3003571429 48.6232000000
2438 1 1.2124500000 67.2178571429 49.5727000000
2439 2 3.4265303571 67.2178571429 48.6232000000
2440 1 4.5336232143 65.3003571429 49.5727000000
2441 2 6.7478089286 61.4653571429 52.7592000000
2442 1 7.8547964286 63.3828571429 51.8097000000
2443 2 10.0689821429 63.3828571429 52.7592000000
2444 1 11.1760750000 61.4653571429 51.8097000000
2445 2 6.7478089286 61.4653571429 48.6232000000
2446 1 7.8547964286 63.3828571429 49.5727000000
2447 2 10.0689821429 63.3828571429 48.6232000000
2448 1 11.1760750000 61.4653571429 49.5727000000
2449 2 6.7478089286 65.3003571429 52.7592000000
2450 1 7.8547964286 67.2178571429 51.8097000000
2451 2 10.0689821429 67.2178571429 52.7592000000
2452 1 11.1760750000 65.3003571429 51.8097000000
2453 2 6.7478089286 65.3003571429 48.6232000000
2454 1 7.8547964286 67.2178571429 49.5727000000
2455 2 10.0689821429 67.2178571429 48.6232000000
2456 1 11.1760750000 65.3003571429 49.5727000000
2457 2 13.3901868379 61.4653571429 52.7592000000
2458 1 14.4972796950 63.3828571429 51.8097000000
2459 2 16.7113600521 63.3828571429 52.7592000000
2460 1 17.8184529093 61.4653571429 51.8097000000
2461 2 13.3901868379 61.4653571429 48.6232000000
2462 1 14.4972796950 63.3828571429 49.5727000000
2463 2 16.7113600521 63.3828571429 48.6232000000
2464 1 17.8184529093 61.4653571429 49.5727000000
2465 2 13.3901868379 65.3003571429 52.7592000000
2466 1 14.4972796950 67.2178571429 51.8097000000
2467 2 16.7113600521 67.2178571429 52.7592000000
2468 1 17.8184529093 65.3003571429 51.8097000000
2469 2 13.3901868379 65.3003571429 48.6232000000
2470 1 14.4972796950 67.2178571429 49.5727000000
2471 2 16.7113600521 67.2178571429 48.6232000000
2472 1 17.8184529093 65.3003571429 49.5727000000
2473 2 20.0326386236 61.4653571429 52.7592000000
2474 1 21.1396261236 63.3828571429 51.8097000000
2475 2 23.3538118379 63.3828571429 52.7592000000
2476 1 24.4609046950 61.4653571429 51.8097000000
2477 2 20.0326386236 61.4653571429 48.6232000000
2478 1 21.1396261236 63.3828571429 49.5727000000
2479 2 23.3538118379 63.3828571429 48.6232000000
2480 1 24.4609046950 61.4653571429 49.5727000000
2481 2 20.0326386236 65.3003571429 52.7592000000
2482 1 21.1396261236 67.2178571429 51.8097000000
2483 2 23.3538118379 67.2178571429 52.7592000000
2484 1 24.4609046950 65.3003571429 51.8097000000
2485 2 20.0326386236 65.3003571429 48.6232000000
2486 1 21.1396261236 67.2178571429 49.5727000000
2487 2 23.3538118379 67.2178571429 48.6232000000
2488 1 24.4609046950 65.3003571429 49.5727000000
2489 2 26.6750165329 61.4653571429 52.7592000000
2490 1 27.7821093900 63.3828571429 51.8097000000
2491 2 29.9961897471 63.3828571429 52.7592000000
2492 1 31.1032826043 61.4653571429 51.8097000000
2493 2 26.6750165329 61.4653571429 48.6232000000
2494 1 27.7821093900 63.3828571429 49.5727000000
2495 2 29.9961897471 63.3828571429 48.6232000000
2496 1 31.1032826043 61.4653571429 49.5727000000
2497 2 26.6750165329 65.3003571429 52.7592000000
2498 1 27.7821093900 67.2178571429 51.8097000000
2499 2 29.9961897471 67.2178571429 52.7592000000
2500 1 31.1032826043 65.3003571429 51.8097000000
2501 2 26.6750165329 65.3003571429 48.6232000000
2502 1 27.7821093900 67.2178571429 49.5727000000
2503 2 29.9961897471 67.2178571429 48.6232000000
2504 1 31.1032826043 65.3003571429 49.5727000000
2505 2 33.3174683186 61.4653571429 52.7592000000
2506 1 34.4244558186 63.3828571429 51.8097000000
2507 2 36.6386415329 63.3828571429 52.7592000000
2508 1 37.7457343900 61.4653571429 51.8097000000
2509 2 33.3174683186 61.4653571429 48.6232000000
2510 1 34.4244558186 63.3828571429 49.5727000000
2511 2 36.6386415329 63.3828571429 48.6232000000
2512 1 37.7457343900 61.4653571429 49.5727000000
2513 2 33.3174683186 65.3003571429 52.7592000000
2514 1 34.4244558186 67.2178571429 51.8097000000
2515 2 36.6386415329 67.2178571429 52.7592000000
2516 1 37.7457343900 65.3003571429 51.8097000000
2517 2 33.3174683186 65.3003571429 48.6232000000
2518 1 34.4244558186 67.2178571429 49.5727000000
2519 2 36.6386415329 67.2178571429 48.6232000000
2520 1 37.7457343900 65.3003571429 49.5727000000
2521 2 39.9598462279 61.4653571429 52.7592000000
2522 1 41.0669390850 63.3828571429 51.8097000000
2523 2 43.2810194421 63.3828571429 52.7592000000
2524 1 44.3881122993 61.4653571429 51.8097000000
2525 2 39.9598462279 61.4653571429 48.6232000000
2526 1 41.0669390850 63.3828571429 49.5727000000
2527 2 43.2810194421 63.3828571429 48.6232000000
2528 1 44.3881122993 61.4653571429 49.5727000000
2529 2 39.9598462279 65.3003571429 52.7592000000
2530 1 44.3881122993 65.3003571429 51.8097000000
2531 2 39.9598462279 65.3003571429 48.6232000000
2532 1 41.0669390850 67.2178571429 49.5727000000
2533 2 43.2810194421 67.2178571429 48.6232000000
2534 1 44.3881122993 65.3003571429 49.5727000000
2535 2 46.6022980136 61.4653571429 52.7592000000
2536 1 47.7092855136 63.3828571429 51.8097000000
2537 2 49.9234712279 63.3828571429 52.7592000000
2538 1 51.0305640850 61.4653571429 51.8097000000
2539 2 46.6022980136 61.4653571429 48.6232000000
2540 1 47.7092855136 63.3828571429 49.5727000000
2541 2 49.9234712279 63.3828571429 48.6232000000
2542 1 51.0305640850 61.4653571429 49.5727000000
2543 2 46.6022980136 65.3003571429 52.7592000000
2544 1 47.7092855136 67.2178571429 51.8097000000
2545 2 49.9234712279 67.2178571429 52.7592000000
2546 1 51.0305640850 65.3003571429 51.8097000000
2547 2 46.6022980136 65.3003571429 48.6232000000
2548 1 47.7092855136 67.2178571429 49.5727000000
2549 2 49.9234712279 67.2178571429 48.6232000000
2550 1 51.0305640850 65.3003571429 49.5727000000
2551 2 53.2446759229 61.4653571429 52.7592000000
2552 1 57.6729419943 61.4653571429 51.8097000000
2553 2 53.2446759229 61.4653571429 48.6232000000
2554 1 54.3517687800 63.3828571429 49.5727000000
2555 2 56.5658491371 63.3828571429 48.6232000000
2556 1 57.6729419943 61.4653571429 49.5727000000
2557 2 53.2446759229 65.3003571429 52.7592000000
2558 1 54.3517687800 67.2178571429 51.8097000000
2559 2 56.5658491371 67.2178571429 52.7592000000
2560 1 57.6729419943 65.3003571429 51.8097000000
2561 2 53.2446759229 65.3003571429 48.6232000000
2562 1 54.3517687800 67.2178571429 49.5727000000
2563 2 56.5658491371 67.2178571429 48.6232000000
2564 1 57.6729419943 65.3003571429 49.5727000000
2565 2 59.8871277086 61.4653571429 52.7592000000
2566 1 60.9941152086 63.3828571429 51.8097000000
2567 2 63.2083009229 63.3828571429 52.7592000000
2568 1 64.3153937800 61.4653571429 51.8097000000
2569 2 59.8871277086 61.4653571429 48.6232000000
2570 1 60.9941152086 63.3828571429 49.5727000000
2571 2 63.2083009229 63.3828571429 48.6232000000
2572 1 64.3153937800 61.4653571429 49.5727000000
2573 2 59.8871277086 65.3003571429 52.7592000000
2574 1 60.9941152086 67.2178571429 51.8097000000
2575 2 63.2083009229 67.2178571429 52.7592000000
2576 1 64.3153937800 65.3003571429 51.8097000000
2577 2 59.8871277086 65.3003571429 48.6232000000
2578 1 60.9941152086 67.2178571429 49.5727000000
2579 2 63.2083009229 67.2178571429 48.6232000000
2580 1 64.3153937800 65.3003571429 49.5727000000
2581 2 66.5295056179 61.4653571429 52.7592000000
2582 1 67.6365984750 63.3828571429 51.8097000000
2583 2 69.8506788321 63.3828571429 52.7592000000
2584 1 70.9577716893 61.4653571429 51.8097000000
2585 2 66.5295056179 61.4653571429 48.6232000000
2586 1 67.6365984750 63.3828571429 49.5727000000
2587 1 70.9577716893 61.4653571429 49.5727000000
2588 2 66.5295056179 65.3003571429 52.7592000000
2589 1 67.6365984750 67.2178571429 51.8097000000
2590 2 69.8506788321 67.2178571429 52.7592000000
2591 1 70.9577716893 65.3003571429 51.8097000000
2592 2 66.5295056179 65.3003571429 48.6232000000
2593 1 67.6365984750 67.2178571429 49.5727000000
2594 2 69.8506788321 67.2178571429 48.6232000000
2595 2 73.1719574036 61.4653571429 52.7592000000
2596 1 74.2789449036 63.3828571429 51.8097000000
2597 2 76.4931306179 63.3828571429 52.7592000000
2598 1 77.6002234750 61.4653571429 51.8097000000
2599 2 73.1719574036 61.4653571429 48.6232000000
2600 1 74.2789449036 63.3828571429 49.5727000000
2601 2 76.4931306179 63.3828571429 48.6232000000
2602 1 77.6002234750 61.4653571429 49.5727000000
2603 2 73.1719574036 65.3003571429 52.7592000000
2604 1 74.2789449036 67.2178571429 51.8097000000
2605 2 76.4931306179 67.2178571429 52.7592000000
2606 2 73.1719574036 65.3003571429 48.6232000000
2607 1 74.2789449036 67.2178571429 49.5727000000
2608 2 76.4931306179 67.2178571429 48.6232000000
2609 1 77.6002234750 65.3003571429 49.5727000000
2610 2 79.8143353129 61.4653571429 52.7592000000
2611 1 80.9214281700 63.3828571429 51.8097000000
2612 2 83.1355085271 63.3828571429 52.7592000000
2613 1 84.2426013843 61.4653571429 51.8097000000
2614 2 79.8143353129 61.4653571429 48.6232000000
2615 1 80.9214281700 63.3828571429 49.5727000000
2616 2 83.1355085271 63.3828571429 48.6232000000
2617 1 84.2426013843 61.4653571429 49.5727000000
2618 1 80.9214281700 67.2178571429 51.8097000000
2619 2 83.1355085271 67.2178571429 52.7592000000
2620 1 84.2426013843 65.3003571429 51.8097000000
2621 2 79.8143353129 65.3003571429 48.6232000000
2622 1 80.9214281700 67.2178571429 49.5727000000
2623 2 83.1355085271 67.2178571429 48.6232000000
2624 1 84.2426013843 65.3003571429 49.5727000000
2625 2 86.4567870986 61.4653571429 52.7592000000
2626 1 87.5637745986 63.3828571429 51.8097000000
2627 2 89.7779603129 63.3828571429 52.7592000000
2628 1 90.8850531700 61.4653571429 51.8097000000
2629 2 86.4567870986 61.4653571429 48.6232000000
2630 1 87.5637745986 63.3828571429 49.5727000000
2631 2 89.7779603129 63.3828571429 48.6232000000
2632 1 90.8850531700 61.4653571429 49.5727000000
2633 2 86.4567870986 65.3003571429 52.7592000000
2634 1 87.5637745986 67.2178571429 51.8097000000
2635 2 89.7779603129 67.2178571429 52.7592000000
2636 1 90.8850531700 65.3003571429 51.8097000000
2637 2 86.4567870986 65.3003571429 48.6232000000
2638 1 87.5637745986 67.2178571429 49.5727000000
2639 2 89.7779603129 67.2178571429 48.6232000000
2640 2 93.0991650079 61.4653571429 52.7592000000
2641 1 94.2062578650 63.3828571429 51.8097000000
2642 2 96.4203382221 63.3828571429 52.7592000000
2643 1 97.5274310793 61.4653571429 51.8097000000
2644 2 93.0991650079 61.4653571429 48.6232000000
2645 1 94.2062578650 63.3828571429 49.5727000000
2646 2 96.4203382221 63.3828571429 48.6232000000
2647 1 97.5274310793 61.4653571429 49.5727000000
2648 2 93.0991650079 65.3003571429 52.7592000000
2649 1 94.2062578650 67.2178571429 51.8097000000
2650 2 96.4203382221 67.2178571429 52.7592000000
2651 1 97.5274310793 65.3003571429 51.8097000000
2652 1 94.2062578650 67.2178571429 49.5727000000
2653 2 96.4203382221 67.2178571429 48.6232000000
2654 1 97.5274310793 65.3003571429 49.5727000000
2655 2 99.7416167936 61.4653571429 52.7592000000
2656 2 103.0627900079 63.3828571429 52.7592000000
2657 1 104.1698828650 61.4653571429 51.8097000000
2658 2 99.7416167936 61.4653571429 48.6232000000
2659 1 100.8486042936 63.3828571429 49.5727000000
2660 2 103.0627900079 63.3828571429 48.6232000000
2661 1 104.1698828650 61.4653571429 49.5727000000
2662 1 100.8486042936 67.2178571429 51.8097000000
2663 2 103.0627900079 67.2178571429 52.7592000000
2664 1 104.1698828650 65.3003571429 51.8097000000
2665 2 99.7416167936 65.3003571429 48.6232000000
2666 1 100.8486042936 67.2178571429 49.5727000000
2667 2 103.0627900079 67.2178571429 48.6232000000
2668 1 104.1698828650 65.3003571429 49.5727000000
2669 2 106.3839947029 61.4653571429 52.7592000000
2670 1 107.4910875600 63.3828571429 51.8097000000
2671 2 109.7051679171 63.3828571429 52.7592000000
2672 1 110.8122607743 61.4653571429 51.8097000000
2673 2 106.3839947029 61.4653571429 48.6232000000
2674 1 107.4910875600 63.3828571429 49.5727000000
2675 2 109.7051679171 63.3828571429 48.6232000000
2676 1 110.8122607743 61.4653571429 49.5727000000
2677 2 106.3839947029 65.3003571429 52.7592000000
2678 1 107.4910875600 67.2178571429 51.8097000000
2679 2 109.7051679171 67.2178571429 52.7592000000
2680 1 110.8122607743 65.3003571429 51.8097000000
2681 2 106.3839947029 65.3003571429 48.6232000000
2682 1 107.4910875600 67.2178571429 49.5727000000
2683 2 109.7051679171 67.2178571429 48.6232000000
2684 1 110.8122607743 65.3003571429 49.5727000000
2685 2 113.0264464886 61.4653571429 52.7592000000
2686 1 114.1334339886 63.3828571429 51.8097000000
2687 2 116.3476197029 63.3828571429 52.7592000000
2688 1 117.4547125600 61.4653571429 51.8097000000
2689 2 113.0264464886 61.4653571429 48.6232000000
2690 1 114.1334339886 63.3828571429 49.5727000000
2691 2 116.3476197029 63.3828571429 48.6232000000
2692 1 117.4547125600 61.4653571429 49.5727000000
2693 2 113.0264464886 65.3003571429 52.7592000000
2694 1 114.1334339886 67.2178571429 51.8097000000
2695 2 116.3476197029 67.2178571429 52.7592000000
2696 1 117.4547125600 65.3003571429 51.8097000000
2697 2 113.0264464886 65.3003571429 48.6232000000
2698 1 114.1334339886 67.2178571429 49.5727000000
2699 2 116.3476197029 67.2178571429 48.6232000000
2700 1 117.4547125600 65.3003571429 49.5727000000
2701 2 119.6688243979 61.4653571429 52.7592000000
2702 1 120.7759172550 63.3828571429 51.8097000000
2703 2 122.9899976121 63.3828571429 52.7592000000
2704 1 124.0970904693 61.4653571429 51.8097000000
2705 2 119.6688243979 61.4653571429 48.6232000000
2706 1 120.7759172550 63.3828571429 49.5727000000
2707 2 122.9899976121 63.3828571429 48.6232000000
2708 1 124.0970904693 61.4653571429 49.5727000000
2709 2 119.6688243979 65.3003571429 52.7592000000
2710 1 124.0970904693 65.3003571429 51.8097000000
2711 2 119.6688243979 65.3003571429 48.6232000000
2712 1 120.7759172550 67.2178571429 49.5727000000
2713 2 122.9899976121 67.2178571429 48.6232000000
2714 1 124.0970904693 65.3003571429 49.5727000000
2715 2 126.3112761836 61.4653571429 52.7592000000
2716 1 127.4182636836 63.3828571429 51.8097000000
2717 2 129.6324493979 63.3828571429 52.7592000000
2718 1 130.7395422550 61.4653571429 51.8097000000
2719 2 126.3112761836 61.4653571429 48.6232000000
2720 1 127.4182636836 63.3828571429 49.5727000000
2721 2 129.6324493979 63.3828571429 48.6232000000
2722 1 130.7395422550 61.4653571429 49.5727000000
2723 2 126.3112761836 65.3003571429 52.7592000000
2724 1 127.4182636836 67.2178571429 51.8097000000
2725 2 129.6324493979 67.2178571429 52.7592000000
2726 1 130.7395422550 65.3003571429 51.8097000000
2727 2 126.3112761836 65.3003571429 48.6232000000
2728 1 127.4182636836 67.2178571429 49.5727000000
2729 2 129.6324493979 67.2178571429 48.6232000000
2730 1 130.7395422550 65.3003571429 49.5727000000
2731 2 0.1053571429 69.1353571429 52.7592000000
2732 1 1.2124500000 71.0528571429 51.8097000000
2733 2 3.4265303571 71.0528571429 52.7592000000
2734 1 4.5336232143 69.1353571429 51.8097000000
2735 2 0.1053571429 69.1353571429 48.6232000000
2736 1 1.2124500000 71.0528571429 49.5727000000
2737 2 3.4265303571 71.0528571429 48.6232000000
2738 1 4.5336232143 69.1353571429 49.5727000000
2739 2 0.1053571429 72.9703571429 52.7592000000
2740 1 1.2124500000 74.8878571429 51.8097000000
2741 2 3.4265303571 74.8878571429 52.7592000000
2742 1 4.5336232143 72.9703571429 51.8097000000
2743 2 0.1053571429 72.9703571429 48.6232000000
2744 1 1.2124500000 74.8878571429 49.5727000000
2745 2 3.4265303571 74.8878571429 48.6232000000
2746 1 4.5336232143 72.9703571429 49.5727000000
2747 2 6.7478089286 69.1353571429 52.7592000000
2748 1 7.8547964286 71.0528571429 51.8097000000
2749 2 10.0689821429 71.0528571429 52.7592000000
2750 2 6.7478089286 69.1353571429 48.6232000000
2751 1 7.8547964286 71.0528571429 49.5727000000
2752 2 10.0689821429 71.0528571429 48.6232000000
2753 1 11.1760750000 69.1353571429 49.5727000000
2754 2 6.7478089286 72.9703571429 52.7592000000
2755 1 7.8547964286 74.8878571429 51.8097000000
2756 2 10.0689821429 74.8878571429 52.7592000000
2757 1 11.1760750000 72.9703571429 51.8097000000
2758 2 6.7478089286 72.9703571429 48.6232000000
2759 1 7.8547964286 74.8878571429 49.5727000000
2760 2 10.0689821429 74.8878571429 48.6232000000
2761 1 11.1760750000 72.9703571429 49.5727000000
2762 1 14.4972796950 71.0528571429 51.8097000000
2763 2 16.7113600521 71.0528571429 52.7592000000
2764 1 17.8184529093 69.1353571429 51.8097000000
2765 2 13.3901868379 69.1353571429 48.6232000000
2766 1 14.4972796950 71.0528571429 49.5727000000
2767 2 16.7113600521 71.0528571429 48.6232000000
2768 1 17.8184529093 69.1353571429 49.5727000000
2769 2 13.3901868379 72.9703571429 52.7592000000
2770 1 14.4972796950 74.8878571429 51.8097000000
2771 2 16.7113600521 74.8878571429 52.7592000000
2772 1 17.8184529093 72.9703571429 51.8097000000
2773 2 13.3901868379 72.9703571429 48.6232000000
2774 1 14.4972796950 74.8878571429 49.5727000000
2775 2 16.7113600521 74.8878571429 48.6232000000
2776 1 17.8184529093 72.9703571429 49.5727000000
2777 2 20.0326386236 69.1353571429 52.7592000000
2778 1 21.1396261236 71.0528571429 51.8097000000
2779 2 23.3538118379 71.0528571429 52.7592000000
2780 1 24.4609046950 69.1353571429 51.8097000000
2781 2 20.0326386236 69.1353571429 48.6232000000
2782 1 21.1396261236 71.0528571429 49.5727000000
2783 2 23.3538118379 71.0528571429 48.6232000000
2784 1 24.4609046950 69.1353571429 49.5727000000
2785 2 20.0326386236 72.9703571429 52.7592000000
2786 1 21.1396261236 74.8878571429 51.8097000000
2787 2 23.3538118379 74.8878571429 52.7592000000
2788 1 24.4609046950 72.9703571429 51.8097000000
2789 2 20.0326386236 72.9703571429 48.6232000000
2790 1 21.1396261236 74.8878571429 49.5727000000
2791 2 23.3538118379 74.8878571429 48.6232000000
2792 1 24.4609046950 72.9703571429 49.5727000000
2793 2 26.6750165329 69.1353571429 52.7592000000
2794 1 27.7821093900 71.0528571429 51.8097000000
2795 2 29.9961897471 71.0528571429 52.7592000000
2796 1 31.1032826043 69.1353571429 51.8097000000
2797 2 26.6750165329 69.1353571429 48.6232000000
2798 1 27.7821093900 71.0528571429 49.5727000000
2799 2 29.9961897471 71.0528571429 48.6232000000
2800 1 31.1032826043 69.1353571429 49.5727000000
2801 2 26.6750165329 72.9703571429 52.7592000000
2802 1 27.7821093900 74.8878571429 51.8097000000
2803 2 29.9961897471 74.8878571429 52.7592000000
2804 1 31.1032826043 72.9703571429 51.8097000000
2805 2 26.6750165329 72.9703571429 48.6232000000
2806 1 27.7821093900 74.8878571429 49.5727000000
2807 2 33.3174683186 69.1353571429 52.7592000000
2808 1 34.4244558186 71.0528571429 51.8097000000
2809 2 36.6386415329 71.0528571429 52.7592000000
2810 1 37.7457343900 69.1353571429 51.8097000000
2811 2 33.3174683186 69.1353571429 48.6232000000
2812 1 34.4244558186 71.0528571429 49.5727000000
2813 2 36.6386415329 71.0528571429 48.6232000000
2814 1 37.7457343900 69.1353571429 49.5727000000
2815 2 33.3174683186 72.9703571429 52.7592000000
2816 1 34.4244558186 74.8878571429 51.8097000000
2817 2 36.6386415329 74.8878571429 52.7592000000
2818 1 37.7457343900 72.9703571429 51.8097000000
2819 2 33.3174683186 72.9703571429 48.6232000000
2820 1 34.4244558186 74.8878571429 49.5727000000
2821 2 36.6386415329 74.8878571429 48.6232000000
2822 1 37.7457343900 72.9703571429 49.5727000000
2823 2 39.9598462279 69.1353571429 52.7592000000
2824 1 41.0669390850 71.0528571429 51.8097000000
2825 2 43.2810194421 71.0528571429 52.7592000000
2826 1 44.3881122993 69.1353571429 51.8097000000
2827 2 39.9598462279 69.1353571429 48.6232000000
2828 1 41.0669390850 71.0528571429 49.5727000000
2829 2 43.2810194421 71.0528571429 48.6232000000
2830 1 44.3881122993 69.1353571429 49.5727000000
2831 2 39.9598462279 72.9703571429 52.7592000000
2832 1 41.0669390850 74.8878571429 51.8097000000
2833 2 43.2810194421 74.8878571429 52.7592000000
2834 1 44.3881122993 72.9703571429 51.8097000000
2835 2 39.9598462279 72.9703571429 48.6232000000
2836 1 41.0669390850 74.8878571429 49.5727000000
2837 2 43.2810194421 74.8878571429 48.6232000000
2838 1 44.3881122993 72.9703571429 49.5727000000
2839 2 46.6022980136 69.1353571429 52.7592000000
2840 1 47.7092855136 71.0528571429 51.8097000000
2841 2 49.9234712279 71.0528571429 52.7592000000
2842 1 51.0305640850 69.1353571429 51.8097000000
2843 2 46.6022980136 69.1353571429 48.6232000000
2844 1 47.7092855136 71.0528571429 49.5727000000
2845 2 49.9234712279 71.0528571429 48.6232000000
2846 1 51.0305640850 69.1353571429 49.5727000000
2847 2 46.6022980136 72.9703571429 52.7592000000
2848 1 47.7092855136 74.8878571429 51.8097000000
2849 2 49.9234712279 74.8878571429 52.7592000000
2850 1 51.0305640850 72.9703571429 51.8097000000
2851 2 46.6022980136 72.9703571429 48.6232000000
2852 1 47.7092855136 74.8878571429 49.5727000000
2853 2 49.9234712279 74.8878571429 48.6232000000
2854 1 51.0305640850 72.9703571429 49.5727000000
2855 2 53.2446759229 69.1353571429 52.7592000000
2856 1 54.3517687800 71.0528571429 51.8097000000
2857 2 56.5658491371 71.0528571429 52.7592000000
2858 1 57.6729419943 69.1353571429 51.8097000000
2859 2 53.2446759229 69.1353571429 48.6232000000
2860 1 54.3517687800 71.0528571429 49.5727000000
2861 2 56.5658491371 71.0528571429 48.6232000000
2862 1 57.6729419943 69.1353571429 49.5727000000
2863 2 53.2446759229 72.9703571429 52.7592000000
2864 1 54.3517687800 74.8878571429 51.8097000000
2865 2 56.5658491371 74.8878571429 52.7592000000
2866 1 57.6729419943 72.9703571429 51.8097000000
2867 2 53.2446759229 72.9703571429 48.6232000000
2868 1 54.3517687800 74.8878571429 49.5727000000
2869 2 56.5658491371 74.8878571429 48.6232000000
2870 1 57.6729419943 72.9703571429 49.5727000000
2871 2 59.8871277086 69.1353571429 52.7592000000
2872 1 60.9941152086 71.0528571429 51.8097000000
2873 2 63.2083009229 71.0528571429 52.7592000000
2874 1 64.3153937800 69.1353571429 51.8097000000
2875 2 59.8871277086 69.1353571429 48.6232000000
2876 1 60.9941152086 71.0528571429 49.5727000000
2877 2 63.2083009229 71.0528571429 48.6232000000
2878 1 64.3153937800 69.1353571429 49.5727000000
2879 2 59.8871277086 72.9703571429 52.7592000000
2880 1 60.9941152086 74.8878571429 51.8097000000
2881 2 63.2083009229 74.8878571429 52.7592000000
2882 1 64.3153937800 72.9703571429 51.8097000000
2883 2 59.8871277086 72.9703571429 48.6232000000
2884 1 60.9941152086 74.8878571429 49.5727000000
2885 2 63.2083009229 74.8878571429 48.6232000000
2886 1 64.3153937800 72.9703571429 49.5727000000
2887 2 66.5295056179 69.1353571429 52.7592000000
2888 1 67.6365984750 71.0528571429 51.8097000000
2889 2 69.8506788321 71.0528571429 52.7592000000
2890 1 70.9577716893 69.1353571429 51.8097000000
2891 2 66.5295056179 69.1353571429 48.6232000000
2892 1 67.6365984750 71.0528571429 49.5727000000
2893 2 69.8506788321 71.0528571429 48.6232000000
2894 1 70.9577716893 69.1353571429 49.5727000000
2895 2 66.5295056179 72.9703571429 52.7592000000
2896 1 70.9577716893 72.9703571429 51.8097000000
2897 2 66.5295056179 72.9703571429 48.6232000000
2898 1 67.6365984750 74.8878571429 49.5727000000
2899 2 69.8506788321 74.8878571429 48.6232000000
2900 1 70.9577716893 72.9703571429 49.5727000000
2901 2 73.1719574036 69.1353571429 52.7592000000
2902 1 74.2789449036 71.0528571429 51.8097000000
2903 2 76.4931306179 71.0528571429 52.7592000000
2904 1 77.6002234750 69.1353571429 51.8097000000
2905 2 73.1719574036 69.1353571429 48.6232000000
2906 1 74.2789449036 71.0528571429 49.5727000000
2907 2 76.4931306179 71.0528571429 48.6232000000
2908 1 77.6002234750 69.1353571429 49.5727000000
2909 2 73.1719574036 72.9703571429 52.7592000000
2910 1 74.2789449036 74.8878571429 51.8097000000
2911 2 76.4931306179 74.8878571429 52.7592000000
2912 1 77.6002234750 72.9703571429 51.8097000000
2913 2 73.1719574036 72.9703571429 48.6232000000
2914 1 74.2789449036 74.8878571429 49.5727000000
2915 2 76.4931306179 74.8878571429 48.6232000000
2916 1 77.6002234750 72.9703571429 49.5727000000
2917 2 79.8143353129 69.1353571429 52.7592000000
2918 1 80.9214281700 71.0528571429 51.8097000000
2919 2 83.1355085271 71.0528571429 52.7592000000
2920 1 84.2426013843 69.1353571429 51.8097000000
2921 2 79.8143353129 69.1353571429 48.6232000000
2922 1 80.9214281700 71.0528571429 49.5727000000
2923 1 84.2426013843 69.1353571429 49.5727000000
2924 2 79.8143353129 72.9703571429 52.7592000000
2925 1 80.9214281700 74.8878571429 51.8097000000
2926 2 83.1355085271 74.8878571429 52.7592000000
2927 1 84.2426013843 72.9703571429 51.8097000000
2928 2 79.8143353129 72.9703571429 48.6232000000
2929 1 80.9214281700 74.8878571429 49.5727000000
2930 2 83.1355085271 74.8878571429 48.6232000000
2931 2 86.4567870986 69.1353571429 52.7592000000
2932 1 87.5637745986 71.0528571429 51.8097000000
2933 2 89.7779603129 71.0528571429 52.7592000000
2934 1 90.8850531700 69.1353571429 51.8097000000
2935 2 86.4567870986 69.1353571429 48.6232000000
2936 1 87.5637745986 71.0528571429 49.5727000000
2937 2 89.7779603129 71.0528571429 48.6232000000
2938 1 90.8850531700 69.1353571429 49.5727000000
2939 2 86.4567870986 72.9703571429 52.7592000000
2940 1 87.5637745986 74.8878571429 51.8097000000
2941 2 89.7779603129 74.8878571429 52.7592000000
2942 1 90.8850531700 72.9703571429 51.8097000000
2943 2 86.4567870986 72.9703571429 48.6232000000
2944 1 87.5637745986 74.8878571429 49.5727000000
2945 2 89.7779603129 74.8878571429 48.6232000000
2946 1 90.8850531700 72.9703571429 49.5727000000
2947 2 93.0991650079 69.1353571429 52.7592000000
2948 1 94.2062578650 71.0528571429 51.8097000000
2949 2 96.4203382221 71.0528571429 52.7592000000
2950 1 97.5274310793 69.1353571429 51.8097000000
2951 2 93.0991650079 69.1353571429 48.6232000000
2952 1 94.2062578650 71.0528571429 49.5727000000
2953 2 96.4203382221 71.0528571429 48.6232000000
2954 1 97.5274310793 69.1353571429 49.5727000000
2955 2 93.0991650079 72.9703571429 52.7592000000
2956 1 94.2062578650 74.8878571429 51.8097000000
2957 2 96.4203382221 74.8878571429 52.7592000000
2958 1 97.5274310793 72.9703571429 51.8097000000
2959 2 93.0991650079 72.9703571429 48.6232000000
2960 1 94.2062578650 74.8878571429 49.5727000000
2961 2 96.4203382221 74.8878571429 48.6232000000
2962 1 97.5274310793 72.9703571429 49.5727000000
2963 2 99.7416167936 69.1353571429 52.7592000000
2964 1 100.8486042936 71.0528571429 51.8097000000
2965 2 103.0627900079 71.0528571429 52.7592000000
2966 1 104.1698828650 69.1353571429 51.8097000000
2967 2 99.7416167936 69.1353571429 48.6232000000
2968 1 100.8486042936 71.0528571429 49.5727000000
2969 2 103.0627900079 71.0528571429 48.6232000000
2970 1 104.1698828650 69.1353571429 49.5727000000
2971 2 99.7416167936 72.9703571429 52.7592000000
2972 1 100.8486042936 74.8878571429 51.8097000000
2973 2 103.0627900079 74.8878571429 52.7592000000
2974 1 104.1698828650 72.9703571429 51.8097000000
2975 2 99.7416167936 72.9703571429 48.6232000000
2976 1 100.8486042936 74.8878571429 49.5727000000
2977 2 103.0627900079 74.8878571429 48.6232000000
2978 1 104.1698828650 72.9703571429 49.5727000000
2979 2 106.3839947029 69.1353571429 52.7592000000
2980 1 107.4910875600 71.0528571429 51.8097000000
2981 2 109.7051679171 71.0528571429 52.7592000000
2982 1 110.8122607743 69.1353571429 51.8097000000
2983 2 106.3839947029 69.1353571429 48.6232000000
2984 1 110.8122607743 69.1353571429 49.5727000000
2985 2 106.3839947029 72.9703571429 52.7592000000
2986 1 107.4910875600 74.8878571429 51.8097000000
2987 2 109.7051679171 74.8878571429 52.7592000000
2988 1 110.8122607743 72.9703571429 51.8097000000
2989 2 106.3839947029 72.9703571429 48.6232000000
2990 1 107.4910875600 74.8878571429 49.5727000000
2991 2 109.7051679171 74.8878571429 48.6232000000
2992 1 110.8122607743 72.9703571429 49.5727000000
2993 2 113.0264464886 69.1353571429 52.7592000000
2994 1 114.1334339886 71.0528571429 51.8097000000
2995 2 116.3476197029 71.0528571429 52.7592000000
2996 1 117.4547125600 69.1353571429 51.8097000000
2997 2 113.0264464886 69.1353571429 48.6232000000
2998 1 114.1334339886 71.0528571429 49.5727000000
2999 2 116.3476197029 71.0528571429 48.6232000000
3000 1 117.4547125600 69.1353571429 49.5727000000
3001 2 113.0264464886 72.9703571429 52.7592000000
3002 1 114.1334339886 74.8878571429 51.8097000000
3003 2 116.3476197029 74.8878571429 52.7592000000
3004 1 117.4547125600 72.9703571429 51.8097000000
3005 2 113.0264464886 72.9703571429 48.6232000000
3006 1 114.1334339886 74.8878571429 49.5727000000
3007 2 116.3476197029 74.8878571429 48.6232000000
3008 1 117.4547125600 72.9703571429 49.5727000000
3009 2 119.6688243979 69.1353571429 52.7592000000
3010 1 120.7759172550 71.0528571429 51.8097000000
3011 2 122.9899976121 71.0528571429 52.7592000000
3012 1 124.0970904693 69.1353571429 51.8097000000
3013 2 119.6688243979 69.1353571429 48.6232000000
3014 1 120.7759172550 71.0528571429 49.5727000000
3015 2 122.9899976121 71.0528571429 48.6232000000
3016 1 124.0970904693 69.1353571429 49.5727000000
3017 2 119.6688243979 72.9703571429 52.7592000000
3018 1 120.7759172550 74.8878571429 51.8097000000
3019 2 122.9899976121 74.8878571429 52.7592000000
3020 1 124.0970904693 72.9703571429 51.8097000000
3021 2 119.6688243979 72.9703571429 48.6232000000
3022 1 120.7759172550 74.8878571429 49.5727000000
3023 2 122.9899976121 74.8878571429 48.6232000000
3024 1 124.0970904693 72.9703571429 49.5727000000
3025 2 126.3112761836 69.1353571429 52.7592000000
3026 1 127.4182636836 71.0528571429 51.8097000000
3027 2 129.6324493979 71.0528571429 52.7592000000
3028 1 130.7395422550 69.1353571429 51.8097000000
3029 2 126.3112761836 69.1353571429 48.6232000000
3030 1 127.4182636836 71.0528571429 49.5727000000
3031 2 129.6324493979 71.0528571429 48.6232000000
3032 1 130.7395422550 69.1353571429 49.5727000000
3033 2 126.3112761836 72.9703571429 52.7592000000
3034 1 127.4182636836 74.8878571429 51.8097000000
3035 2 129.6324493979 74.8878571429 52.7592000000
3036 1 130.7395422550 72.9703571429 51.8097000000
3037 2 126.3112761836 72.9703571429 48.6232000000
3038 1 127.4182636836 74.8878571429 49.5727000000
3039 2 129.6324493979 74.8878571429 48.6232000000
3040 1 130.7395422550 72.9703571429 49.5727000000
3041 2 0.1053571429 76.8053571429 52.7592000000
3042 1 1.2124500000 78.7228571429 51.8097000000
3043 2 3.4265303571 78.7228571429 52.7592000000
3044 1 4.5336232143 76.8053571429 51.8097000000
3045 2 0.1053571429 76.8053571429 48.6232000000
3046 1 4.5336232143 76.8053571429 49.5727000000
3047 2 0.1053571429 80.6403571429 52.7592000000
3048 1 1.2124500000 82.5578571429 51.8097000000
3049 2 3.4265303571 82.5578571429 52.7592000000
3050 1 4.5336232143 80.6403571429 51.8097000000
3051 2 0.1053571429 80.6403571429 48.6232000000
3052 1 1.2124500000 82.5578571429 49.5727000000
3053 2 3.4265303571 82.5578571429 48.6232000000
3054 1 4.5336232143 80.6403571429 49.5727000000
3055 2 6.7478089286 76.8053571429 52.7592000000
3056 1 7.8547964286 78.7228571429 51.8097000000
3057 2 10.0689821429 78.7228571429 52.7592000000
3058 1 11.1760750000 76.8053571429 51.8097000000
3059 2 6.7478089286 76.8053571429 48.6232000000
3060 1 7.8547964286 78.7228571429 49.5727000000
3061 2 10.0689821429 78.7228571429 48.6232000000
3062 1 11.1760750000 76.8053571429 49.5727000000
3063 2 6.7478089286 80.6403571429 52.7592000000
3064 1 7.8547964286 82.5578571429 51.8097000000
3065 2 10.0689821429 82.5578571429 52.7592000000
3066 1 11.1760750000 80.6403571429 51.8097000000
3067 2 6.7478089286 80.6403571429 48.6232000000
3068 1 7.8547964286 82.5578571429 49.5727000000
3069 2 10.0689821429 82.5578571429 48.6232000000
3070 1 11.1760750000 80.6403571429 49.5727000000
3071 2 13.3901868379 76.8053571429 52.7592000000
3072 1 14.4972796950 78.7228571429 51.8097000000
3073 2 16.7113600521 78.7228571429 52.7592000000
3074 1 17.8184529093 76.8053571429 51.8097000000
3075 2 13.3901868379 76.8053571429 48.6232000000
3076 1 14.4972796950 78.7228571429 49.5727000000
3077 2 16.7113600521 78.7228571429 48.6232000000
3078 1 17.8184529093 76.8053571429 49.5727000000
3079 2 13.3901868379 80.6403571429 52.7592000000
3080 1 14.4972796950 82.5578571429 51.8097000000
3081 2 16.7113600521 82.5578571429 52.7592000000
3082 1 17.8184529093 80.6403571429 51.8097000000
3083 2 13.3901868379 80.6403571429 48.6232000000
3084 1 14.4972796950 82.5578571429 49.5727000000
3085 2 16.7113600521 82.5578571429 48.6232000000
3086 1 17.8184529093 80.6403571429 49.5727000000
3087 2 20.0326386236 76.8053571429 52.7592000000
3088 1 21.1396261236 78.7228571429 51.8097000000
3089 2 23.3538118379 78.7228571429 52.7592000000
3090 1 24.4609046950 76.8053571429 51.8097000000
3091 2 23.3538118379 78.7228571429 48.6232000000
3092 1 24.4609046950 76.8053571429 49.5727000000
3093 2 20.0326386236 80.6403571429 52.7592000000
3094 1 21.1396261236 82.5578571429 51.8097000000
3095 2 23.3538118379 82.5578571429 52.7592000000
3096 1 24.4609046950 80.6403571429 51.8097000000
3097 2 20.0326386236 80.6403571429 48.6232000000
3098 1 21.1396261236 82.5578571429 49.5727000000
3099 2 23.3538118379 82.5578571429 48.6232000000
3100 1 24.4609046950 80.6403571429 49.5727000000
3101 2 26.6750165329 76.8053571429 52.7592000000
3102 1 27.7821093900 78.7228571429 51.8097000000
3103 2 29.9961897471 78.7228571429 52.7592000000
3104 1 31.1032826043 76.8053571429 51.8097000000
3105 2 26.6750165329 76.8053571429 48.6232000000
3106 1 27.7821093900 78.7228571429 49.5727000000
3107 2 29.9961897471 78.7228571429 48.6232000000
3108 1 31.1032826043 76.8053571429 49.5727000000
3109 2 26.6750165329 80.6403571429 52.7592000000
3110 1 27.7821093900 82.5578571429 51.8097000000
3111 2 29.9961897471 82.5578571429 52.7592000000
3112 1 31.1032826043 80.6403571429 51.8097000000
3113 2 26.6750165329 80.6403571429 48.6232000000
3114 1 27.7821093900 82.5578571429 49.5727000000
3115 2 29.9961897471 82.5578571429 48.6232000000
3116 1 31.1032826043 80.6403571429 49.5727000000
3117 2 33.3174683186 76.8053571429 52.7592000000
3118 1 34.4244558186 78.7228571429 51.8097000000
3119 2 36.6386415329 78.7228571429 52.7592000000
3120 1 37.7457343900 76.8053571429 51.8097000000
3121 2 33.3174683186 76.8053571429 48.6232000000
3122 1 34.4244558186 78.7228571429 49.5727000000
3123 2 36.6386415329 78.7228571429 48.6232000000
3124 1 37.7457343900 76.8053571429 49.5727000000
3125 2 33.3174683186 80.6403571429 52.7592000000
3126 1 34.4244558186 82.5578571429 51.8097000000
3127 2 36.6386415329 82.5578571429 52.7592000000
3128 1 37.7457343900 80.6403571429 51.8097000000
3129 2 33.3174683186 80.6403571429 48.6232000000
3130 1 34.4244558186 82.5578571429 49.5727000000
3131 2 36.6386415329 82.5578571429 48.6232000000
3132 1 37.7457343900 80.6403571429 49.5727000000
3133 2 39.9598462279 76.8053571429 52.7592000000
3134 1 41.0669390850 78.7228571429 51.8097000000
3135 1 44.3881122993 76.8053571429 51.8097000000
3136 2 39.9598462279 76.8053571429 48.6232000000
3137 1 41.0669390850 78.7228571429 49.5727000000
3138 2 43.2810194421 78.7228571429 48.6232000000
3139 1 44.3881122993 76.8053571429 49.5727000000
3140 2 39.9598462279 80.6403571429 52.7592000000
3141 1 41.0669390850 82.5578571429 51.8097000000
3142 2 43.2810194421 82.5578571429 52.7592000000
3143 2 39.9598462279 80.6403571429 48.6232000000
3144 1 41.0669390850 82.5578571429 49.5727000000
3145 2 43.2810194421 82.5578571429 48.6232000000
3146 1 44.3881122993 80.6403571429 49.5727000000
3147 2 46.6022980136 76.8053571429 52.7592000000
3148 1 47.7092855136 78.7228571429 51.8097000000
3149 2 49.9234712279 78.7228571429 52.7592000000
3150 1 51.0305640850 76.8053571429 51.8097000000
3151 2 46.6022980136 76.8053571429 48.6232000000
3152 1 47.7092855136 78.7228571429 49.5727000000
3153 2 49.9234712279 78.7228571429 48.6232000000
3154 2 46.6022980136 80.6403571429 52.7592000000
3155 1 47.7092855136 82.5578571429 51.8097000000
3156 2 49.9234712279 82.5578571429 52.7592000000
3157 1 51.0305640850 80.6403571429 51.8097000000
3158 2 46.6022980136 80.6403571429 48.6232000000
3159 1 47.7092855136 82.5578571429 49.5727000000
3160 2 49.9234712279 82.5578571429 48.6232000000
3161 1 51.0305640850 80.6403571429 49.5727000000
3162 2 53.2446759229 76.8053571429 52.7592000000
3163 1 54.3517687800 78.7228571429 51.8097000000
3164 2 56.5658491371 78.7228571429 52.7592000000
3165 1 57.6729419943 76.8053571429 51.8097000000
3166 1 54.3517687800 78.7228571429 49.5727000000
3167 2 56.5658491371 78.7228571429 48.6232000000
3168 1 57.6729419943 76.8053571429 49.5727000000
3169 2 53.2446759229 80.6403571429 52.7592000000
3170 1 54.3517687800 82.5578571429 51.8097000000
3171 2 56.5658491371 82.5578571429 52.7592000000
3172 1 57.6729419943 80.6403571429 51.8097000000
3173 2 53.2446759229 80.6403571429 48.6232000000
3174 1 54.3517687800 82.5578571429 49.5727000000
3175 2 56.5658491371 82.5578571429 48.6232000000
3176 1 57.6729419943 80.6403571429 49.5727000000
3177 2 59.8871277086 76.8053571429 52.7592000000
3178 1 60.9941152086 78.7228571429 51.8097000000
3179 2 63.2083009229 78.7228571429 52.7592000000
3180 1 64.3153937800 76.8053571429 51.8097000000
3181 2 59.8871277086 76.8053571429 48.6232000000
3182 1 60.9941152086 78.7228571429 49.5727000000
3183 2 63.2083009229 78.7228571429 48.6232000000
3184 1 64.3153937800 76.8053571429 49.5727000000
3185 2 59.8871277086 80.6403571429 52.7592000000
3186 1 60.9941152086 82.5578571429 51.8097000000
3187 2 63.2083009229 82.5578571429 52.7592000000
3188 1 64.3153937800 80.6403571429 51.8097000000
3189 2 59.8871277086 80.6403571429 48.6232000000
3190 1 60.9941152086 82.5578571429 49.5727000000
3191 2 63.2083009229 82.5578571429 48.6232000000
3192 1 64.3153937800 80.6403571429 49.5727000000
3193 2 66.5295056179 76.8053571429 52.7592000000
3194 1 67.6365984750 78.7228571429 51.8097000000
3195 2 69.8506788321 78.7228571429 52.7592000000
3196 1 70.9577716893 76.8053571429 51.8097000000
3197 2 66.5295056179 76.8053571429 48.6232000000
3198 1 67.6365984750 78.7228571429 49.5727000000
3199 2 69.8506788321 78.7228571429 48.6232000000
3200 1 70.9577716893 76.8053571429 49.5727000000
3201 2 66.5295056179 80.6403571429 52.7592000000
3202 1 67.6365984750 82.5578571429 51.8097000000
3203 2 69.8506788321 82.5578571429 52.7592000000
3204 1 70.9577716893 80.6403571429 51.8097000000
3205 2 66.5295056179 80.6403571429 48.6232000000
3206 1 67.6365984750 82.5578571429 49.5727000000
3207 2 69.8506788321 82.5578571429 48.6232000000
3208 1 70.9577716893 80.6403571429 49.5727000000
3209 2 73.1719574036 76.8053571429 52.7592000000
3210 1 74.2789449036 78.7228571429 51.8097000000
3211 2 76.4931306179 78.7228571429 52.7592000000
3212 1 77.6002234750 76.8053571429 51.8097000000
3213 2 73.1719574036 76.8053571429 48.6232000000
3214 1 74.2789449036 78.7228571429 49.5727000000
3215 2 76.4931306179 78.7228571429 48.6232000000
3216 1 77.6002234750 76.8053571429 49.5727000000
3217 2 73.1719574036 80.6403571429 52.7592000000
3218 1 74.2789449036 82.5578571429 51.8097000000
3219 2 76.4931306179 82.5578571429 52.7592000000
3220 1 77.6002234750 80.6403571429 51.8097000000
3221 2 73.1719574036 80.6403571429 48.6232000000
3222 1 74.2789449036 82.5578571429 49.5727000000
3223 2 76.4931306179 82.5578571429 48.6232000000
3224 1 77.6002234750 80.6403571429 49.5727000000
3225 2 79.8143353129 76.8053571429 52.7592000000
3226 1 80.9214281700 78.7228571429 51.8097000000
3227 2 83.1355085271 78.7228571429 52.7592000000
3228 1 84.2426013843 76.8053571429 51.8097000000
3229 2 79.8143353129 76.8053571429 48.6232000000
3230 1 80.9214281700 78.7228571429 49.5727000000
3231 2 83.1355085271 78.7228571429 48.6232000000
3232 1 84.2426013843 76.8053571429 49.5727000000
3233 2 79.8143353129 80.6403571429 52.7592000000
3234 1 80.9214281700 82.5578571429 51.8097000000
3235 2 83.1355085271 82.5578571429 52.7592000000
3236 1 84.2426013843 80.6403571429 51.8097000000
3237 2 79.8143353129 80.6403571429 48.6232000000
3238 1 80.9214281700 82.5578571429 49.5727000000
3239 2 83.1355085271 82.5578571429 48.6232000000
3240 1 84.2426013843 80.6403571429 49.5727000000
3241 2 86.4567870986 76.8053571429 52.7592000000
3242 1 87.5637745986 78.7228571429 51.8097000000
3243 2 89.7779603129 78.7228571429 52.7592000000
3244 1 90.8850531700 76.8053571429 51.8097000000
3245 2 86.4567870986 76.8053571429 48.6232000000
3246 1 87.5637745986 78.7228571429 49.5727000000
3247 2 89.7779603129 78.7228571429 48.6232000000
3248 1 90.8850531700 76.8053571429 49.5727000000
3249 2 86.4567870986 80.6403571429 52.7592000000
3250 2 89.7779603129 82.5578571429 52.7592000000
3251 1 90.8850531700 80.6403571429 51.8097000000
3252 2 86.4567870986 80.6403571429 48.6232000000
3253 1 87.5637745986 82.5578571429 49.5727000000
3254 2 89.7779603129 82.5578571429 48.6232000000
3255 1 90.8850531700 80.6403571429 49.5727000000
3256 2 93.0991650079 76.8053571429 52.7592000000
3257 1 94.2062578650 78.7228571429 51.8097000000
3258 2 96.4203382221 78.7228571429 52.7592000000
3259 1 97.5274310793 76.8053571429 51.8097000000
3260 2 93.0991650079 76.8053571429 48.6232000000
3261 1 94.2062578650 78.7228571429 49.5727000000
3262 2 96.4203382221 78.7228571429 48.6232000000
3263 1 97.5274310793 76.8053571429 49.5727000000
3264 2 93.0991650079 80.6403571429 52.7592000000
3265 1 94.2062578650 82.5578571429 51.8097000000
3266 2 96.4203382221 82.5578571429 52.7592000000
3267 1 97.5274310793 80.6403571429 51.8097000000
3268 2 93.0991650079 80.6403571429 48.6232000000
3269 1 94.2062578650 82.5578571429 49.5727000000
3270 2 99.7416167936 76.8053571429 52.7592000000
3271 1 100.8486042936 78.7228571429 51.8097000000
3272 2 103.0627900079 78.7228571429 52.7592000000
3273 1 104.1698828650 76.8053571429 51.8097000000
3274 2 99.7416167936 76.8053571429 48.6232000000
3275 1 100.8486042936 78.7228571429 49.5727000000
3276 2 103.0627900079 78.7228571429 48.6232000000
3277 1 104.1698828650 76.8053571429 49.5727000000
3278 2 99.7416167936 80.6403571429 52.7592000000
3279 1 100.8486042936 82.5578571429 51.8097000000
3280 2 103.0627900079 82.5578571429 52.7592000000
3281 2 99.7416167936 80.6403571429 48.6232000000
3282 1 100.8486042936 82.5578571429 49.5727000000
3283 2 103.0627900079 82.5578571429 48.6232000000
3284 1 104.1698828650 80.6403571429 49.5727000000
3285 2 106.3839947029 76.8053571429 52.7592000000
3286 1 107.4910875600 78.7228571429 51.8097000000
3287 2 109.7051679171 78.7228571429 52.7592000000
3288 1 110.8122607743 76.8053571429 51.8097000000
3289 2 106.3839947029 76.8053571429 48.6232000000
3290 1 107.4910875600 78.7228571429 49.5727000000
3291 2 109.7051679171 78.7228571429 48.6232000000
3292 1 110.8122607743 76.8053571429 49.5727000000
3293 1 107.4910875600 82.5578571429 51.8097000000
3294 2 109.7051679171 82.5578571429 52.7592000000
3295 1 110.8122607743 80.6403571429 51.8097000000
3296 2 106.3839947029 80.6403571429 48.6232000000
3297 1 107.4910875600 82.5578571429 49.5727000000
3298 2 109.7051679171 82.5578571429 48.6232000000
3299 1 110.8122607743 80.6403571429 49.5727000000
3300 2 113.0264464886 76.8053571429 52.7592000000
3301 1 114.1334339886 78.7228571429 51.8097000000
3302 2 116.3476197029 78.7228571429 52.7592000000
3303 1 117.4547125600 76.8053571429 51.8097000000
3304 2 113.0264464886 76.8053571429 48.6232000000
3305 1 114.1334339886 78.7228571429 49.5727000000
3306 2 116.3476197029 78.7228571429 48.6232000000
3307 2 113.0264464886 80.6403571429 52.7592000000
3308 2 116.3476197029 82.5578571429 52.7592000000
3309 1 117.4547125600 80.6403571429 51.8097000000
3310 2 113.0264464886 80.6403571429 48.6232000000
3311 1 114.1334339886 82.5578571429 49.5727000000
3312 2 116.3476197029 82.5578571429 48.6232000000
3313 1 117.4547125600 80.6403571429 49.5727000000
3314 2 119.6688243979 76.8053571429 52.7592000000
3315 1 120.7759172550 78.7228571429 51.8097000000
3316 2 122.9899976121 78.7228571429 52.7592000000
3317 1 124.0970904693 76.8053571429 51.8097000000
3318 1 120.7759172550 78.7228571429 49.5727000000
3319 2 122.9899976121 78.7228571429 48.6232000000
3320 1 124.0970904693 76.8053571429 49.5727000000
3321 2 119.6688243979 80.6403571429 52.7592000000
3322 1 120.7759172550 82.5578571429 51.8097000000
3323 2 122.9899976121 82.5578571429 52.7592000000
3324 1 124.0970904693 80.6403571429 51.8097000000
3325 2 119.6688243979 80.6403571429 48.6232000000
3326 1 120.7759172550 82.5578571429 49.5727000000
3327 2 122.9899976121 82.5578571429 48.6232000000
3328 1 124.0970904693 80.6403571429 49.5727000000
3329 2 126.3112761836 76.8053571429 52.7592000000
3330 1 127.4182636836 78.7228571429 51.8097000000
3331 2 129.6324493979 78.7228571429 52.7592000000
3332 1 130.7395422550 76.8053571429 51.8097000000
3333 2 126.3112761836 76.8053571429 48.6232000000
3334 1 127.4182636836 78.7228571429 49.5727000000
3335 2 129.6324493979 78.7228571429 48.6232000000
3336 1 130.7395422550 76.8053571429 49.5727000000
3337 2 126.3112761836 80.6403571429 52.7592000000
3338 1 127.4182636836 82.5578571429 51.8097000000
3339 2 129.6324493979 82.5578571429 52.7592000000
3340 1 130.7395422550 80.6403571429 51.8097000000
3341 2 129.6324493979 82.5578571429 48.6232000000
3342 1 130.7395422550 80.6403571429 49.5727000000
3343 2 0.1053571429 84.4753571429 52.7592000000
3344 1 1.2124500000 86.3928571429 51.8097000000
3345 2 3.4265303571 86.3928571429 52.7592000000
3346 1 4.5336232143 84.4753571429 51.8097000000
3347 2 0.1053571429 84.4753571429 48.6232000000
3348 1 1.2124500000 86.3928571429 49.5727000000
3349 2 3.4265303571 86.3928571429 48.6232000000
3350 1 4.5336232143 84.4753571429 49.5727000000
3351 2 0.1053571429 88.3103571429 52.7592000000
3352 1 1.2124500000 90.2278571429 51.8097000000
3353 2 3.4265303571 90.2278571429 52.7592000000
3354 1 4.5336232143 88.3103571429 51.8097000000
3355 2 0.1053571429 88.3103571429 48.6232000000
3356 1 1.2124500000 90.2278571429 49.5727000000
3357 2 3.4265303571 90.2278571429 48.6232000000
3358 1 4.5336232143 88.3103571429 49.5727000000
3359 2 6.7478089286 84.4753571429 52.7592000000
3360 1 7.8547964286 86.3928571429 51.8097000000
3361 2 10.0689821429 86.3928571429 52.7592000000
3362 1 11.1760750000 84.4753571429 51.8097000000
3363 2 6.7478089286 84.4753571429 48.6232000000
3364 1 7.8547964286 86.3928571429 49.5727000000
3365 2 10.0689821429 86.3928571429 48.6232000000
3366 2 6.7478089286 88.3103571429 52.7592000000
3367 1 7.8547964286 90.2278571429 51.8097000000
3368 2 10.0689821429 90.2278571429 52.7592000000
3369 1 11.1760750000 88.3103571429 51.8097000000
3370 2 6.7478089286 88.3103571429 48.6232000000
3371 1 7.8547964286 90.2278571429 49.5727000000
3372 2 10.0689821429 90.2278571429 48.6232000000
3373 1 11.1760750000 88.3103571429 49.5727000000
3374 2 13.3901868379 84.4753571429 52.7592000000
3375 1 14.4972796950 86.3928571429 51.8097000000
3376 2 16.7113600521 86.3928571429 52.7592000000
3377 1 17.8184529093 84.4753571429 51.8097000000
3378 1 14.4972796950 86.3928571429 49.5727000000
3379 2 16.7113600521 86.3928571429 48.6232000000
3380 1 17.8184529093 84.4753571429 49.5727000000
3381 2 13.3901868379 88.3103571429 52.7592000000
3382 1 14.4972796950 90.2278571429 51.8097000000
3383 2 16.7113600521 90.2278571429 52.7592000000
3384 1 17.8184529093 88.3103571429 51.8097000000
3385 2 13.3901868379 88.3103571429 48.6232000000
3386 1 14.4972796950 90.2278571429 49.5727000000
3387 2 16.7113600521 90.2278571429 48.6232000000
3388 1 17.8184529093 88.3103571429 49.5727000000
3389 2 20.0326386236 84.4753571429 52.7592000000
3390 1 21.1396261236 86.3928571429 51.8097000000
3391 2 23.3538118379 86.3928571429 52.7592000000
3392 1 24.4609046950 84.4753571429 51.8097000000
3393 2 20.0326386236 84.4753571429 48.6232000000
3394 1 21.1396261236 86.3928571429 49.5727000000
3395 2 23.3538118379 86.3928571429 48.6232000000
3396 1 24.4609046950 84.4753571429 49.5727000000
3397 2 20.0326386236 88.3103571429 52.7592000000
3398 1 21.1396261236 90.2278571429 51.8097000000
3399 2 23.3538118379 90.2278571429 52.7592000000
3400 1 24.4609046950 88.3103571429 51.8097000000
3401 2 20.0326386236 88.3103571429 48.6232000000
3402 1 21.1396261236 90.2278571429 49.5727000000
3403 2 23.3538118379 90.2278571429 48.6232000000
3404 1 24.4609046950 88.3103571429 49.5727000000
3405 2 26.6750165329 84.4753571429 52.7592000000
3406 1 27.7821093900 86.3928571429 51.8097000000
3407 1 31.1032826043 84.4753571429 51.8097000000
3408 2 26.6750165329 84.4753571429 48.6232000000
3409 1 27.7821093900 86.3928571429 49.5727000000
3410 2 29.9961897471 86.3928571429 48.6232000000
3411 1 31.1032826043 84.4753571429 49.5727000000
3412 2 26.6750165329 88.3103571429 52.7592000000
3413 1 27.7821093900 90.2278571429 51.8097000000
3414 2 29.9961897471 90.2278571429 52.7592000000
3415 2 26.6750165329 88.3103571429 48.6232000000
3416 1 27.7821093900 90.2278571429 49.5727000000
3417 2 29.9961897471 90.2278571429 48.6232000000
3418 1 31.1032826043 88.3103571429 49.5727000000
3419 2 33.3174683186 84.4753571429 52.7592000000
3420 1 34.4244558186 86.3928571429 51.8097000000
3421 2 36.6386415329 86.3928571429 52.7592000000
3422 1 37.7457343900 84.4753571429 51.8097000000
3423 2 33.3174683186 84.4753571429 48.6232000000
3424 1 34.4244558186 86.3928571429 49.5727000000
3425 2 36.6386415329 86.3928571429 48.6232000000
3426 1 37.7457343900 84.4753571429 49.5727000000
3427 2 33.3174683186 88.3103571429 52.7592000000
3428 1 34.4244558186 90.2278571429 51.8097000000
3429 2 36.6386415329 90.2278571429 52.7592000000
3430 1 37.7457343900 88.3103571429 51.8097000000
3431 2 33.3174683186 88.3103571429 48.6232000000
3432 1 34.4244558186 90.2278571429 49.5727000000
3433 2 36.6386415329 90.2278571429 48.6232000000
3434 1 37.7457343900 88.3103571429 49.5727000000
3435 2 39.9598462279 84.4753571429 52.7592000000
3436 1 41.0669390850 86.3928571429 51.8097000000
3437 2 43.2810194421 86.3928571429 52.7592000000
3438 1 44.3881122993 84.4753571429 51.8097000000
3439 2 39.9598462279 84.4753571429 48.6232000000
3440 1 41.0669390850 86.3928571429 49.5727000000
3441 2 43.2810194421 86.3928571429 48.6232000000
3442 1 44.3881122993 84.4753571429 49.5727000000
3443 2 39.9598462279 88.3103571429 52.7592000000
3444 1 41.0669390850 90.2278571429 51.8097000000
3445 1 44.3881122993 88.3103571429 51.8097000000
3446 2 39.9598462279 88.3103571429 48.6232000000
3447 1 41.0669390850 90.2278571429 49.5727000000
3448 2 43.2810194421 90.2278571429 48.6232000000
3449 1 44.3881122993 88.3103571429 49.5727000000
3450 2 46.6022980136 84.4753571429 52.7592000000
3451 1 47.7092855136 86.3928571429 51.8097000000
3452 2 49.9234712279 86.3928571429 52.7592000000
3453 1 51.0305640850 84.4753571429 51.8097000000
3454 2 46.6022980136 84.4753571429 48.6232000000
3455 1 47.7092855136 86.3928571429 49.5727000000
3456 2 49.9234712279 86.3928571429 48.6232000000
3457 1 51.0305640850 84.4753571429 49.5727000000
3458 2 46.6022980136 88.3103571429 52.7592000000
3459 1 47.7092855136 90.2278571429 51.8097000000
3460 2 49.9234712279 90.2278571429 52.7592000000
3461 1 51.0305640850 88.3103571429 51.8097000000
3462 2 46.6022980136 88.3103571429 48.6232000000
3463 1 47.7092855136 90.2278571429 49.5727000000
3464 2 49.9234712279 90.2278571429 48.6232000000
3465 1 51.0305640850 88.3103571429 49.5727000000
3466 2 53.2446759229 84.4753571429 52.7592000000
3467 1 54.3517687800 86.3928571429 51.8097000000
3468 2 56.5658491371 86.3928571429 52.7592000000
3469 1 57.6729419943 84.4753571429 51.8097000000
3470 2 53.2446759229 84.4753571429 48.6232000000
3471 1 54.3517687800 86.3928571429 49.5727000000
3472 2 56.5658491371 86.3928571429 48.6232000000
3473 1 57.6729419943 84.4753571429 49.5727000000
3474 2 53.2446759229 88.3103571429 52.7592000000
3475 1 54.3517687800 90.2278571429 51.8097000000
3476 2 56.5658491371 90.2278571429 52.7592000000
3477 1 57.6729419943 88.3103571429 51.8097000000
3478 2 53.2446759229 88.3103571429 48.6232000000
3479 1 54.3517687800 90.2278571429 49.5727000000
3480 2 56.5658491371 90.2278571429 48.6232000000
3481 1 57.6729419943 88.3103571429 49.5727000000
3482 2 59.8871277086 84.4753571429 52.7592000000
3483 1 60.9941152086 86.3928571429 51.8097000000
3484 2 63.2083009229 86.3928571429 52.7592000000
3485 1 64.3153937800 84.4753571429 51.8097000000
3486 2 63.2083009229 86.3928571429 48.6232000000
3487 1 64.3153937800 84.4753571429 49.5727000000
3488 2 59.8871277086 88.3103571429 52.7592000000
3489 1 60.9941152086 90.2278571429 51.8097000000
3490 2 63.2083009229 90.2278571429 52.7592000000
3491 1 64.3153937800 88.3103571429 51.8097000000
3492 2 59.8871277086 88.3103571429 48.6232000000
3493 1 60.9941152086 90.2278571429 49.5727000000
3494 2 63.2083009229 90.2278571429 48.6232000000
3495 1 64.3153937800 88.3103571429 49.5727000000
3496 2 66.5295056179 84.4753571429 52.7592000000
3497 1 67.6365984750 86.3928571429 51.8097000000
3498 2 69.8506788321 86.3928571429 52.7592000000
3499 1 70.9577716893 84.4753571429 51.8097000000
3500 2 66.5295056179 84.4753571429 48.6232000000
3501 1 67.6365984750 86.3928571429 49.5727000000
3502 2 69.8506788321 86.3928571429 48.6232000000
3503 1 70.9577716893 84.4753571429 49.5727000000
3504 2 66.5295056179 88.3103571429 52.7592000000
3505 1 67.6365984750 90.2278571429 51.8097000000
3506 2 69.8506788321 90.2278571429 52.7592000000
3507 1 70.9577716893 88.3103571429 51.8097000000
3508 2 66.5295056179 88.3103571429 48.6232000000
3509 1 67.6365984750 90.2278571429 49.5727000000
3510 2 69.8506788321 90.2278571429 48.6232000000
3511 1 70.9577716893 88.3103571429 49.5727000000
3512 2 73.1719574036 84.4753571429 52.7592000000
3513 1 74.2789449036 86.3928571429 51.8097000000
3514 2 76.4931306179 86.3928571429 52.7592000000
3515 2 73.1719574036 84.4753571429 48.6232000000
3516 1 74.2789449036 86.3928571429 49.5727000000
3517 2 76.4931306179 86.3928571429 48.6232000000
3518 1 77.6002234750 84.4753571429 49.5727000000
3519 2 73.1719574036 88.3103571429 52.7592000000
3520 1 74.2789449036 90.2278571429 51.8097000000
3521 2 76.4931306179 90.2278571429 52.7592000000
3522 1 77.6002234750 88.3103571429 51.8097000000
3523 2 73.1719574036 88.3103571429 48.6232000000
3524 1 74.2789449036 90.2278571429 49.5727000000
3525 2 76.4931306179 90.2278571429 48.6232000000
3526 1 77.6002234750 88.3103571429 49.5727000000
3527 1 80.9214281700 86.3928571429 51.8097000000
3528 2 83.1355085271 86.3928571429 52.7592000000
3529 1 84.2426013843 84.4753571429 51.8097000000
3530 2 79.8143353129 84.4753571429 48.6232000000
3531 1 80.9214281700 86.3928571429 49.5727000000
3532 2 83.1355085271 86.3928571429 48.6232000000
3533 1 84.2426013843 84.4753571429 49.5727000000
3534 2 79.8143353129 88.3103571429 52.7592000000
3535 1 80.9214281700 90.2278571429 51.8097000000
3536 2 83.1355085271 90.2278571429 52.7592000000
3537 1 84.2426013843 88.3103571429 51.8097000000
3538 2 79.8143353129 88.3103571429 48.6232000000
3539 1 80.9214281700 90.2278571429 49.5727000000
3540 2 83.1355085271 90.2278571429 48.6232000000
3541 1 84.2426013843 88.3103571429 49.5727000000
3542 1 87.5637745986 86.3928571429 51.8097000000
3543 2 89.7779603129 86.3928571429 52.7592000000
3544 1 90.8850531700 84.4753571429 51.8097000000
3545 2 86.4567870986 84.4753571429 48.6232000000
3546 1 87.5637745986 86.3928571429 49.5727000000
3547 2 89.7779603129 86.3928571429 48.6232000000
3548 1 90.8850531700 84.4753571429 49.5727000000
3549 2 86.4567870986 88.3103571429 52.7592000000
3550 1 87.5637745986 90.2278571429 51.8097000000
3551 2 89.7779603129 90.2278571429 52.7592000000
3552 1 90.8850531700 88.3103571429 51.8097000000
3553 2 86.4567870986 88.3103571429 48.6232000000
3554 1 87.5637745986 90.2278571429 49.5727000000
3555 2 89.7779603129 90.2278571429 48.6232000000
3556 1 90.8850531700 88.3103571429 49.5727000000
3557 2 93.0991650079 84.4753571429 52.7592000000
3558 1 94.2062578650 86.3928571429 51.8097000000
3559 2 96.4203382221 86.3928571429 52.7592000000
3560 1 97.5274310793 84.4753571429 51.8097000000
3561 2 93.0991650079 84.4753571429 48.6232000000
3562 1 94.2062578650 86.3928571429 49.5727000000
3563 2 96.4203382221 86.3928571429 48.6232000000
3564 1 97.5274310793 84.4753571429 49.5727000000
3565 2 93.0991650079 88.3103571429 52.7592000000
3566 1 94.2062578650 90.2278571429 51.8097000000
3567 2 96.4203382221 90.2278571429 52.7592000000
3568 1 97.5274310793 88.3103571429 51.8097000000
3569 2 93.0991650079 88.3103571429 48.6232000000
3570 1 94.2062578650 90.2278571429 49.5727000000
3571 2 96.4203382221 90.2278571429 48.6232000000
3572 1 97.5274310793 88.3103571429 49.5727000000
3573 2 99.7416167936 84.4753571429 52.7592000000
3574 1 100.8486042936 86.3928571429 51.8097000000
3575 2 103.0627900079 86.3928571429 52.7592000000
3576 1 104.1698828650 84.4753571429 51.8097000000
3577 2 99.7416167936 84.4753571429 48.6232000000
3578 1 100.8486042936 86.3928571429 49.5727000000
3579 2 103.0627900079 86.3928571429 48.6232000000
3580 1 104.1698828650 84.4753571429 49.5727000000
3581 2 99.7416167936 88.3103571429 52.7592000000
3582 1 100.8486042936 90.2278571429 51.8097000000
3583 2 103.0627900079 90.2278571429 52.7592000000
3584 1 104.1698828650 88.3103571429 51.8097000000
3585 2 99.7416167936 88.3103571429 48.6232000000
3586 2 103.0627900079 90.2278571429 48.6232000000
3587 1 104.1698828650 88.3103571429 49.5727000000
3588 2 106.3839947029 84.4753571429 52.7592000000
3589 1 107.4910875600 86.3928571429 51.8097000000
3590 2 109.7051679171 86.3928571429 52.7592000000
3591 1 110.8122607743 84.4753571429 51.8097000000
3592 2 106.3839947029 84.4753571429 48.6232000000
3593 1 107.4910875600 86.3928571429 49.5727000000
3594 2 109.7051679171 86.3928571429 48.6232000000
3595 1 110.8122607743 84.4753571429 49.5727000000
3596 2 106.3839947029 88.3103571429 52.7592000000
3597 1 107.4910875600 90.2278571429 51.8097000000
3598 2 109.7051679171 90.2278571429 52.7592000000
3599 1 110.8122607743 88.3103571429 51.8097000000
3600 2 106.3839947029 88.3103571429 48.6232000000
3601 1 107.4910875600 90.2278571429 49.5727000000
3602 1 110.8122607743 88.3103571429 49.5727000000
3603 1 114.1334339886 86.3928571429 51.8097000000
3604 2 116.3476197029 86.3928571429 52.7592000000
3605 1 117.4547125600 84.4753571429 51.8097000000
3606 2 113.0264464886 84.4753571429 48.6232000000
3607 1 114.1334339886 86.3928571429 49.5727000000
3608 2 116.3476197029 86.3928571429 48.6232000000
3609 1 117.4547125600 84.4753571429 49.5727000000
3610 2 113.0264464886 88.3103571429 52.7592000000
3611 1 114.1334339886 90.2278571429 51.8097000000
3612 2 116.3476197029 90.2278571429 52.7592000000
3613 1 117.4547125600 88.3103571429 51.8097000000
3614 2 113.0264464886 88.3103571429 48.6232000000
3615 1 114.1334339886 90.2278571429 49.5727000000
3616 2 116.3476197029 90.2278571429 48.6232000000
3617 1 117.4547125600 88.3103571429 49.5727000000
3618 2 119.6688243979 84.4753571429 52.7592000000
3619 1 120.7759172550 86.3928571429 51.8097000000
3620 2 122.9899976121 86.3928571429 52.7592000000
3621 1 124.0970904693 84.4753571429 51.8097000000
3622 2 119.6688243979 84.4753571429 48.6232000000
3623 1 120.7759172550 86.3928571429 49.5727000000
3624 2 122.9899976121 86.3928571429 48.6232000000
3625 1 124.0970904693 84.4753571429 49.5727000000
3626 2 119.6688243979 88.3103571429 52.7592000000
3627 1 120.7759172550 90.2278571429 51.8097000000
3628 2 122.9899976121 90.2278571429 52.7592000000
3629 1 124.0970904693 88.3103571429 51.8097000000
3630 2 119.6688243979 88.3103571429 48.6232000000
3631 1 124.0970904693 88.3103571429 49.5727000000
3632 2 126.3112761836 84.4753571429 52.7592000000
3633 1 127.4182636836 86.3928571429 51.8097000000
3634 2 129.6324493979 86.3928571429 52.7592000000
3635 1 130.7395422550 84.4753571429 51.8097000000
3636 2 126.3112761836 84.4753571429 48.6232000000
3637 1 127.4182636836 86.3928571429 49.5727000000
3638 2 129.6324493979 86.3928571429 48.6232000000
3639 1 130.7395422550 84.4753571429 49.5727000000
3640 2 126.3112761836 88.3103571429 52.7592000000
3641 1 127.4182636836 90.2278571429 51.8097000000
3642 2 129.6324493979 90.2278571429 52.7592000000
3643 1 130.7395422550 88.3103571429 51.8097000000
3644 2 126.3112761836 88.3103571429 48.6232000000
3645 1 127.4182636836 90.2278571429 49.5727000000
3646 2 129.6324493979 90.2278571429 48.6232000000
3647 1 130.7395422550 88.3103571429 49.5727000000
3648 2 0.1053571429 92.1453571429 52.7592000000
3649 1 1.2124500000 94.0628571429 51.8097000000
3650 2 3.4265303571 94.0628571429 52.7592000000
3651 1 4.5336232143 92.1453571429 51.8097000000
3652 1 4.5336232143 92.1453571429 49.5727000000
3653 2 0.1053571429 95.9803571429 52.7592000000
3654 1 1.2124500000 97.8978571429 51.8097000000
3655 2 3.4265303571 97.8978571429 52.7592000000
3656 1 4.5336232143 95.9803571429 51.8097000000
3657 2 0.1053571429 95.9803571429 48.6232000000
3658 1 1.2124500000 97.8978571429 49.5727000000
3659 2 3.4265303571 97.8978571429 48.6232000000
3660 1 4.5336232143 95.9803571429 49.5727000000
3661 2 6.7478089286 92.1453571429 52.7592000000
3662 1 7.8547964286 94.0628571429 51.8097000000
3663 2 10.0689821429 94.0628571429 52.7592000000
3664 1 11.1760750000 92.1453571429 51.8097000000
3665 2 6.7478089286 92.1453571429 48.6232000000
3666 1 7.8547964286 94.0628571429 49.5727000000
3667 2 10.0689821429 94.0628571429 48.6232000000
3668 1 11.1760750000 92.1453571429 49.5727000000
3669 2 6.7478089286 95.9803571429 52.7592000000
3670 1 7.8547964286 97.8978571429 51.8097000000
3671 2 10.0689821429 97.8978571429 52.7592000000
3672 1 11.1760750000 95.9803571429 51.8097000000
3673 2 6.7478089286 95.9803571429 48.6232000000
3674 1 7.8547964286 97.8978571429 49.5727000000
3675 2 10.0689821429 97.8978571429 48.6232000000
3676 1 11.1760750000 95.9803571429 49.5727000000
3677 2 13.3901868379 92.1453571429 52.7592000000
3678 1 14.4972796950 94.0628571429 51.8097000000
3679 2 16.7113600521 94.0628571429 52.7592000000
3680 1 17.8184529093 92.1453571429 51.8097000000
3681 2 13.3901868379 92.1453571429 48.6232000000
3682 1 17.8184529093 92.1453571429 49.5727000000
3683 2 13.3901868379 95.9803571429 52.7592000000
3684 1 14.4972796950 97.8978571429 51.8097000000
3685 2 16.7113600521 97.8978571429 52.7592000000
3686 1 17.8184529093 95.9803571429 51.8097000000
3687 2 13.3901868379 95.9803571429 48.6232000000
3688 1 14.4972796950 97.8978571429 49.5727000000
3689 2 16.7113600521 97.8978571429 48.6232000000
3690 1 17.8184529093 95.9803571429 49.5727000000
3691 2 20.0326386236 92.1453571429 52.7592000000
3692 1 21.1396261236 94.0628571429 51.8097000000
3693 2 23.3538118379 94.0628571429 52.7592000000
3694 1 24.4609046950 92.1453571429 51.8097000000
3695 2 20.0326386236 92.1453571429 48.6232000000
3696 1 21.1396261236 94.0628571429 49.5727000000
3697 2 23.3538118379 94.0628571429 48.6232000000
3698 1 24.4609046950 92.1453571429 49.5727000000
3699 2 20.0326386236 95.9803571429 52.7592000000
3700 1 21.1396261236 97.8978571429 51.8097000000
3701 2 23.3538118379 97.8978571429 52.7592000000
3702 1 24.4609046950 95.9803571429 51.8097000000
3703 2 20.0326386236 95.9803571429 48.6232000000
3704 1 21.1396261236 97.8978571429 49.5727000000
3705 2 23.3538118379 97.8978571429 48.6232000000
3706 1 24.4609046950 95.9803571429 49.5727000000
3707 2 26.6750165329 92.1453571429 52.7592000000
3708 1 27.7821093900 94.0628571429 51.8097000000
3709 2 29.9961897471 94.0628571429 52.7592000000
3710 1 31.1032826043 92.1453571429 51.8097000000
3711 2 26.6750165329 92.1453571429 48.6232000000
3712 1 27.7821093900 94.0628571429 49.5727000000
3713 2 29.9961897471 94.0628571429 48.6232000000
3714 1 31.1032826043 92.1453571429 49.5727000000
3715 2 26.6750165329 95.9803571429 52.7592000000
3716 1 27.7821093900 97.8978571429 51.8097000000
3717 2 26.6750165329 95.9803571429 48.6232000000
3718 1 27.7821093900 97.8978571429 49.5727000000
3719 2 29.9961897471 97.8978571429 48.6232000000
3720 1 31.1032826043 95.9803571429 49.5727000000
3721 2 33.3174683186 92.1453571429 52.7592000000
3722 1 34.4244558186 94.0628571429 51.8097000000
3723 2 36.6386415329 94.0628571429 52.7592000000
3724 1 37.7457343900 92.1453571429 51.8097000000
3725 2 33.3174683186 92.1453571429 48.6232000000
3726 1 34.4244558186 94.0628571429 49.5727000000
3727 2 36.6386415329 94.0628571429 48.6232000000
3728 1 37.7457343900 92.1453571429 49.5727000000
3729 2 33.3174683186 95.9803571429 52.7592000000
3730 1 34.4244558186 97.8978571429 51.8097000000
3731 2 36.6386415329 97.8978571429 52.7592000000
3732 1 37.7457343900 95.9803571429 51.8097000000
3733 2 33.3174683186 95.9803571429 48.6232000000
3734 1 34.4244558186 97.8978571429 49.5727000000
3735 2 36.6386415329 97.8978571429 48.6232000000
3736 1 37.7457343900 95.9803571429 49.5727000000
3737 2 39.9598462279 92.1453571429 52.7592000000
3738 1 41.0669390850 94.0628571429 51.8097000000
3739 2 43.2810194421 94.0628571429 52.7592000000
3740 2 39.9598462279 92.1453571429 48.6232000000
3741 1 41.0669390850 94.0628571429 49.5727000000
3742 2 43.2810194421 94.0628571429 48.6232000000
3743 1 44.3881122993 92.1453571429 49.5727000000
3744 2 39.9598462279 95.9803571429 52.7592000000
3745 1 41.0669390850 97.8978571429 51.8097000000
3746 2 43.2810194421 97.8978571429 52.7592000000
3747 1 44.3881122993 95.9803571429 51.8097000000
3748 2 39.9598462279 95.9803571429 48.6232000000
3749 1 41.0669390850 97.8978571429 49.5727000000
3750 2 43.2810194421 97.8978571429 48.6232000000
3751 1 44.3881122993 95.9803571429 49.5727000000
3752 2 46.6022980136 92.1453571429 52.7592000000
3753 1 47.7092855136 94.0628571429 51.8097000000
3754 2 49.9234712279 94.0628571429 52.7592000000
3755 1 51.0305640850 92.1453571429 51.8097000000
3756 2 46.6022980136 92.1453571429 48.6232000000
3757 1 47.7092855136 94.0628571429 49.5727000000
3758 2 49.9234712279 94.0628571429 48.6232000000
3759 1 51.0305640850 92.1453571429 49.5727000000
3760 2 46.6022980136 95.9803571429 52.7592000000
3761 1 47.7092855136 97.8978571429 51.8097000000
3762 2 49.9234712279 97.8978571429 52.7592000000
3763 1 51.0305640850 95.9803571429 51.8097000000
3764 2 46.6022980136 95.9803571429 48.6232000000
3765 1 47.7092855136 97.8978571429 49.5727000000
3766 2 49.9234712279 97.8978571429 48.6232000000
3767 1 51.0305640850 95.9803571429 49.5727000000
3768 2 53.2446759229 92.1453571429 52.7592000000
3769 1 57.6729419943 92.1453571429 51.8097000000
3770 2 53.2446759229 92.1453571429 48.6232000000
3771 1 54.3517687800 94.0628571429 49.5727000000
3772 2 56.5658491371 94.0628571429 48.6232000000
3773 1 57.6729419943 92.1453571429 49.5727000000
3774 2 53.2446759229 95.9803571429 52.7592000000
3775 1 54.3517687800 97.8978571429 51.8097000000
3776 2 56.5658491371 97.8978571429 52.7592000000
3777 1 57.6729419943 95.9803571429 51.8097000000
3778 2 53.2446759229 95.9803571429 48.6232000000
3779 1 54.3517687800 97.8978571429 49.5727000000
3780 2 56.5658491371 97.8978571429 48.6232000000
3781 1 57.6729419943 95.9803571429 49.5727000000
3782 2 59.8871277086 92.1453571429 52.7592000000
3783 1 60.9941152086 94.0628571429 51.8097000000
3784 2 63.2083009229 94.0628571429 52.7592000000
3785 1 64.3153937800 92.1453571429 51.8097000000
3786 2 59.8871277086 92.1453571429 48.6232000000
3787 1 60.9941152086 94.0628571429 49.5727000000
3788 2 63.2083009229 94.0628571429 48.6232000000
3789 1 64.3153937800 92.1453571429 49.5727000000
3790 2 59.8871277086 95.9803571429 52.7592000000
3791 1 60.9941152086 97.8978571429 51.8097000000
3792 2 63.2083009229 97.8978571429 52.7592000000
3793 1 64.3153937800 95.9803571429 51.8097000000
3794 2 59.8871277086 95.9803571429 48.6232000000
3795 1 60.9941152086 97.8978571429 49.5727000000
3796 2 63.2083009229 97.8978571429 48.6232000000
3797 1 64.3153937800 95.9803571429 49.5727000000
3798 2 66.5295056179 92.1453571429 52.7592000000
3799 1 67.6365984750 94.0628571429 51.8097000000
3800 2 69.8506788321 94.0628571429 52.7592000000
3801 1 70.9577716893 92.1453571429 51.8097000000
3802 2 66.5295056179 92.1453571429 48.6232000000
3803 1 67.6365984750 94.0628571429 49.5727000000
3804 2 69.8506788321 94.0628571429 48.6232000000
3805 1 70.9577716893 92.1453571429 49.5727000000
3806 2 66.5295056179 95.9803571429 52.7592000000
3807 1 67.6365984750 97.8978571429 51.8097000000
3808 2 69.8506788321 97.8978571429 52.7592000000
3809 1 70.9577716893 95.9803571429 51.8097000000
3810 2 66.5295056179 95.9803571429 48.6232000000
3811 1 67.6365984750 97.8978571429 49.5727000000
3812 2 69.8506788321 97.8978571429 48.6232000000
3813 1 70.9577716893 95.9803571429 49.5727000000
3814 2 73.1719574036 92.1453571429 52.7592000000
3815 1 74.2789449036 94.0628571429 51.8097000000
3816 2 76.4931306179 94.0628571429 52.7592000000
3817 1 77.6002234750 92.1453571429 51.8097000000
3818 2 73.1719574036 92.1453571429 48.6232000000
3819 1 74.2789449036 94.0628571429 49.5727000000
3820 2 76.4931306179 94.0628571429 48.6232000000
3821 1 77.6002234750 92.1453571429 49.5727000000
3822 2 73.1719574036 95.9803571429 52.7592000000
3823 2 76.4931306179 97.8978571429 52.7592000000
3824 1 77.6002234750 95.9803571429 51.8097000000
3825 2 73.1719574036 95.9803571429 48.6232000000
3826 1 74.2789449036 97.8978571429 49.5727000000
3827 2 76.4931306179 97.8978571429 48.6232000000
3828 1 77.6002234750 95.9803571429 49.5727000000
3829 2 79.8143353129 92.1453571429 52.7592000000
3830 1 80.9214281700 94.0628571429 51.8097000000
3831 2 83.1355085271 94.0628571429 52.7592000000
3832 1 84.2426013843 92.1453571429 51.8097000000
3833 2 79.8143353129 92.1453571429 48.6232000000
3834 1 80.9214281700 94.0628571429 49.5727000000
3835 2 83.1355085271 94.0628571429 48.6232000000
3836 1 84.2426013843 92.1453571429 49.5727000000
3837 2 79.8143353129 95.9803571429 52.7592000000
3838 1 80.9214281700 97.8978571429 51.8097000000
3839 2 83.1355085271 97.8978571429 52.7592000000
3840 1 84.2426013843 95.9803571429 51.8097000000
3841 2 79.8143353129 95.9803571429 48.6232000000
3842 1 80.9214281700 97.8978571429 49.5727000000
3843 1 84.2426013843 95.9803571429 49.5727000000
3844 2 86.4567870986 92.1453571429 52.7592000000
3845 1 87.5637745986 94.0628571429 51.8097000000
3846 2 89.7779603129 94.0628571429 52.7592000000
3847 1 90.8850531700 92.1453571429 51.8097000000
3848 2 86.4567870986 92.1453571429 48.6232000000
3849 1 87.5637745986 94.0628571429 49.5727000000
3850 2 89.7779603129 94.0628571429 48.6232000000
3851 1 90.8850531700 92.1453571429 49.5727000000
3852 2 86.4567870986 95.9803571429 52.7592000000
3853 1 87.5637745986 97.8978571429 51.8097000000
3854 2 89.7779603129 97.8978571429 52.7592000000
3855 1 90.8850531700 95.9803571429 51.8097000000
3856 2 86.4567870986 95.9803571429 48.6232000000
3857 1 87.5637745986 97.8978571429 49.5727000000
3858 2 89.7779603129 97.8978571429 48.6232000000
3859 1 90.8850531700 95.9803571429 49.5727000000
3860 2 93.0991650079 92.1453571429 52.7592000000
3861 1 94.2062578650 94.0628571429 51.8097000000
3862 2 96.4203382221 94.0628571429 52.7592000000
3863 1 97.5274310793 92.1453571429 51.8097000000
3864 2 93.0991650079 92.1453571429 48.6232000000
3865 1 94.2062578650 94.0628571429 49.5727000000
3866 2 96.4203382221 94.0628571429 48.6232000000
3867 1 97.5274310793 92.1453571429 49.5727000000
3868 2 93.0991650079 95.9803571429 52.7592000000
3869 1 94.2062578650 97.8978571429 51.8097000000
3870 2 96.4203382221 97.8978571429 52.7592000000
3871 1 97.5274310793 95.9803571429 51.8097000000
3872 2 93.0991650079 95.9803571429 48.6232000000
3873 1 97.5274310793 95.9803571429 49.5727000000
3874 2 99.7416167936 92.1453571429 52.7592000000
3875 1 100.8486042936 94.0628571429 51.8097000000
3876 2 103.0627900079 94.0628571429 52.7592000000
3877 1 104.1698828650 92.1453571429 51.8097000000
3878 1 100.8486042936 94.0628571429 49.5727000000
3879 2 103.0627900079 94.0628571429 48.6232000000
3880 1 104.1698828650 92.1453571429 49.5727000000
3881 2 99.7416167936 95.9803571429 52.7592000000
3882 1 100.8486042936 97.8978571429 51.8097000000
3883 2 103.0627900079 97.8978571429 52.7592000000
3884 1 104.1698828650 95.9803571429 51.8097000000
3885 2 99.7416167936 95.9803571429 48.6232000000
3886 1 100.8486042936 97.8978571429 49.5727000000
3887 2 103.0627900079 97.8978571429 48.6232000000
3888 1 104.1698828650 95.9803571429 49.5727000000
3889 2 106.3839947029 92.1453571429 52.7592000000
3890 1 107.4910875600 94.0628571429 51.8097000000
3891 2 109.7051679171 94.0628571429 52.7592000000
3892 1 110.8122607743 92.1453571429 51.8097000000
3893 2 106.3839947029 92.1453571429 48.6232000000
3894 1 107.4910875600 94.0628571429 49.5727000000
3895 2 109.7051679171 94.0628571429 48.6232000000
3896 2 106.3839947029 95.9803571429 52.7592000000
3897 1 107.4910875600 97.8978571429 51.8097000000
3898 2 109.7051679171 97.8978571429 52.7592000000
3899 1 110.8122607743 95.9803571429 51.8097000000
3900 2 106.3839947029 95.9803571429 48.6232000000
3901 1 107.4910875600 97.8978571429 49.5727000000
3902 2 109.7051679171 97.8978571429 48.6232000000
3903 1 110.8122607743 95.9803571429 49.5727000000
3904 2 113.0264464886 92.1453571429 52.7592000000
3905 1 114.1334339886 94.0628571429 51.8097000000
3906 2 116.3476197029 94.0628571429 52.7592000000
3907 1 117.4547125600 92.1453571429 51.8097000000
3908 2 113.0264464886 92.1453571429 48.6232000000
3909 1 114.1334339886 94.0628571429 49.5727000000
3910 2 116.3476197029 94.0628571429 48.6232000000
3911 1 117.4547125600 92.1453571429 49.5727000000
3912 2 113.0264464886 95.9803571429 52.7592000000
3913 2 116.3476197029 97.8978571429 52.7592000000
3914 1 117.4547125600 95.9803571429 51.8097000000
3915 2 113.0264464886 95.9803571429 48.6232000000
3916 1 114.1334339886 97.8978571429 49.5727000000
3917 2 116.3476197029 97.8978571429 48.6232000000
3918 1 117.4547125600 95.9803571429 49.5727000000
3919 2 119.6688243979 92.1453571429 52.7592000000
3920 1 120.7759172550 94.0628571429 51.8097000000
3921 2 122.9899976121 94.0628571429 52.7592000000
3922 1 124.0970904693 92.1453571429 51.8097000000
3923 2 119.6688243979 92.1453571429 48.6232000000
3924 1 120.7759172550 94.0628571429 49.5727000000
3925 2 122.9899976121 94.0628571429 48.6232000000
3926 1 124.0970904693 92.1453571429 49.5727000000
3927 2 119.6688243979 95.9803571429 52.7592000000
3928 1 120.7759172550 97.8978571429 51.8097000000
3929 2 122.9899976121 97.8978571429 52.7592000000
3930 1 124.0970904693 95.9803571429 51.8097000000
3931 2 119.6688243979 95.9803571429 48.6232000000
3932 1 120.7759172550 97.8978571429 49.5727000000
3933 2 122.9899976121 97.8978571429 48.6232000000
3934 1 124.0970904693 95.9803571429 49.5727000000
3935 2 126.3112761836 92.1453571429 52.7592000000
3936 1 127.4182636836 94.0628571429 51.8097000000
3937 2 129.6324493979 94.0628571429 52.7592000000
3938 1 130.7395422550 92.1453571429 51.8097000000
3939 2 126.3112761836 92.1453571429 48.6232000000
3940 1 127.4182636836 94.0628571429 49.5727000000
3941 2 129.6324493979 94.0628571429 48.6232000000
3942 2 126.3112761836 95.9803571429 52.7592000000
3943 1 127.4182636836 97.8978571429 51.8097000000
3944 2 129.6324493979 97.8978571429 52.7592000000
3945 1 130.7395422550 95.9803571429 51.8097000000
3946 2 126.3112761836 95.9803571429 48.6232000000
3947 2 129.6324493979 97.8978571429 48.6232000000
3948 1 130.7395422550 95.9803571429 49.5727000000
3949 2 0.1053571429 99.8153571429 52.7592000000
3950 1 1.2124500000 101.7328571429 51.8097000000
3951 2 3.4265303571 101.7328571429 52.7592000000
3952 1 4.5336232143 99.8153571429 51.8097000000
3953 2 0.1053571429 99.8153571429 48.6232000000
3954 1 1.2124500000 101.7328571429 49.5727000000
3955 2 3.4265303571 101.7328571429 48.6232000000
3956 1 4.5336232143 99.8153571429 49.5727000000
3957 2 0.1053571429 103.6503571429 52.7592000000
3958 1 1.2124500000 105.5678571429 51.8097000000
3959 2 3.4265303571 105.5678571429 52.7592000000
3960 1 4.5336232143 103.6503571429 51.8097000000
3961 2 0.1053571429 103.6503571429 48.6232000000
3962 1 1.2124500000 105.5678571429 49.5727000000
3963 2 3.4265303571 105.5678571429 48.6232000000
3964 1 4.5336232143 103.6503571429 49.5727000000
3965 2 6.7478089286 99.8153571429 52.7592000000
3966 1 7.8547964286 101.7328571429 51.8097000000
3967 2 10.0689821429 101.7328571429 52.7592000000
3968 1 11.1760750000 99.8153571429 51.8097000000
3969 2 6.7478089286 99.8153571429 48.6232000000
3970 1 7.8547964286 101.7328571429 49.5727000000
3971 2 10.0689821429 101.7328571429 48.6232000000
3972 1 11.1760750000 99.8153571429 49.5727000000
3973 2 6.7478089286 103.6503571429 52.7592000000
3974 1 7.8547964286 105.5678571429 51.8097000000
3975 2 10.0689821429 105.5678571429 52.7592000000
3976 1 11.1760750000 103.6503571429 51.8097000000
3977 2 6.7478089286 103.6503571429 48.6232000000
3978 1 7.8547964286 105.5678571429 49.5727000000
3979 2 10.0689821429 105.5678571429 48.6232000000
3980 1 11.1760750000 103.6503571429 49.5727000000
3981 2 13.3901868379 99.8153571429 52.7592000000
3982 1 14.4972796950 101.7328571429 51.8097000000
3983 2 16.7113600521 101.7328571429 52.7592000000
3984 1 17.8184529093 99.8153571429 51.8097000000
3985 2 13.3901868379 99.8153571429 48.6232000000
3986 1 14.4972796950 101.7328571429 49.5727000000
3987 2 16.7113600521 101.7328571429 48.6232000000
3988 1 17.8184529093 99.8153571429 49.5727000000
3989 2 13.3901868379 103.6503571429 52.7592000000
3990 1 14.4972796950 105.5678571429 51.8097000000
3991 2 16.7113600521 105.5678571429 52.7592000000
3992 1 17.8184529093 103.6503571429 51.8097000000
3993 2 13.3901868379 103.6503571429 48.6232000000
3994 1 14.4972796950 105.5678571429 49.5727000000
3995 2 16.7113600521 105.5678571429 48.6232000000
3996 1 17.8184529093 103.6503571429 49.5727000000
3997 2 20.0326386236 99.8153571429 52.7592000000
3998 1 21.1396261236 101.7328571429 51.8097000000
3999 2 23.3538118379 101.7328571429 52.7592000000
4000 1 24.4609046950 99.8153571429 51.8097000000
4001 2 20.0326386236 99.8153571429 48.6232000000
4002 1 21.1396261236 101.7328571429 49.5727000000
4003 2 23.3538118379 101.7328571429 48.6232000000
4004 1 24.4609046950 99.8153571429 49.5727000000
4005 2 20.0326386236 103.6503571429 52.7592000000
4006 1 21.1396261236 105.5678571429 51.8097000000
4007 2 23.3538118379 105.5678571429 52.7592000000
4008 1 24.4609046950 103.6503571429 51.8097000000
4009 2 20.0326386236 103.6503571429 48.6232000000
4010 1 21.1396261236 105.5678571429 49.5727000000
4011 2 23.3538118379 105.5678571429 48.6232000000
4012 1 24.4609046950 103.6503571429 49.5727000000
4013 2 26.6750165329 99.8153571429 52.7592000000
4014 1 27.7821093900 101.7328571429 51.8097000000
4015 2 29.9961897471 101.7328571429 52.7592000000
4016 1 31.1032826043 99.8153571429 51.8097000000
4017 2 26.6750165329 99.8153571429 48.6232000000
4018 1 27.7821093900 101.7328571429 49.5727000000
4019 2 29.9961897471 101.7328571429 48.6232000000
4020 1 31.1032826043 99.8153571429 49.5727000000
4021 2 26.6750165329 103.6503571429 52.7592000000
4022 1 27.7821093900 105.5678571429 51.8097000000
4023 2 29.9961897471 105.5678571429 52.7592000000
4024 1 31.1032826043 103.6503571429 51.8097000000
4025 2 26.6750165329 103.6503571429 48.6232000000
4026 1 27.7821093900 105.5678571429 49.5727000000
4027 2 29.9961897471 105.5678571429 48.6232000000
4028 1 31.1032826043 103.6503571429 49.5727000000
4029 2 33.3174683186 99.8153571429 52.7592000000
4030 1 34.4244558186 101.7328571429 51.8097000000
4031 2 36.6386415329 101.7328571429 52.7592000000
4032 1 37.7457343900 99.8153571429 51.8097000000
4033 2 33.3174683186 99.8153571429 48.6232000000
4034 1 34.4244558186 101.7328571429 49.5727000000
4035 2 36.6386415329 101.7328571429 48.6232000000
4036 1 37.7457343900 99.8153571429 49.5727000000
4037 2 33.3174683186 103.6503571429 52.7592000000
4038 1 34.4244558186 105.5678571429 51.8097000000
4039 2 36.6386415329 105.5678571429 52.7592000000
4040 2 33.3174683186 103.6503571429 48.6232000000
4041 1 34.4244558186 105.5678571429 49.5727000000
4042 2 36.6386415329 105.5678571429 48.6232000000
4043 1 37.7457343900 103.6503571429 49.5727000000
4044 2 39.9598462279 99.8153571429 52.7592000000
4045 1 41.0669390850 101.7328571429 51.8097000000
4046 2 43.2810194421 101.7328571429 52.7592000000
4047 1 44.3881122993 99.8153571429 51.8097000000
4048 2 39.9598462279 99.8153571429 48.6232000000
4049 1 41.0669390850 101.7328571429 49.5727000000
4050 2 43.2810194421 101.7328571429 48.6232000000
4051 1 44.3881122993 99.8153571429 49.5727000000
4052 1 41.0669390850 105.5678571429 51.8097000000
4053 2 43.2810194421 105.5678571429 52.7592000000
4054 1 44.3881122993 103.6503571429 51.8097000000
4055 2 39.9598462279 103.6503571429 48.6232000000
4056 1 41.0669390850 105.5678571429 49.5727000000
4057 2 43.2810194421 105.5678571429 48.6232000000
4058 1 44.3881122993 103.6503571429 49.5727000000
4059 2 46.6022980136 99.8153571429 52.7592000000
4060 1 47.7092855136 101.7328571429 51.8097000000
4061 2 49.9234712279 101.7328571429 52.7592000000
4062 1 51.0305640850 99.8153571429 51.8097000000
4063 2 46.6022980136 99.8153571429 48.6232000000
4064 1 47.7092855136 101.7328571429 49.5727000000
4065 2 49.9234712279 101.7328571429 48.6232000000
4066 1 51.0305640850 99.8153571429 49.5727000000
4067 2 49.9234712279 105.5678571429 52.7592000000
4068 1 51.0305640850 103.6503571429 51.8097000000
4069 2 46.6022980136 103.6503571429 48.6232000000
4070 1 47.7092855136 105.5678571429 49.5727000000
4071 2 49.9234712279 105.5678571429 48.6232000000
4072 1 51.0305640850 103.6503571429 49.5727000000
4073 2 53.2446759229 99.8153571429 52.7592000000
4074 1 54.3517687800 101.7328571429 51.8097000000
4075 2 56.5658491371 101.7328571429 52.7592000000
4076 1 57.6729419943 99.8153571429 51.8097000000
4077 2 53.2446759229 99.8153571429 48.6232000000
4078 1 54.3517687800 101.7328571429 49.5727000000
4079 2 56.5658491371 101.7328571429 48.6232000000
4080 1 57.6729419943 99.8153571429 49.5727000000
4081 2 53.2446759229 103.6503571429 52.7592000000
4082 1 54.3517687800 105.5678571429 51.8097000000
4083 2 56.5658491371 105.5678571429 52.7592000000
4084 1 57.6729419943 103.6503571429 51.8097000000
4085 2 53.2446759229 103.6503571429 48.6232000000
4086 1 54.3517687800 105.5678571429 49.5727000000
4087 2 56.5658491371 105.5678571429 48.6232000000
4088 1 57.6729419943 103.6503571429 49.5727000000
4089 2 59.8871277086 99.8153571429 52.7592000000
4090 1 60.9941152086 101.7328571429 51.8097000000
4091 2 63.2083009229 101.7328571429 52.7592000000
4092 1 64.3153937800 99.8153571429 51.8097000000
4093 2 59.8871277086 99.8153571429 48.6232000000
4094 1 60.9941152086 101.7328571429 49.5727000000
4095 2 63.2083009229 101.7328571429 48.6232000000
4096 1 64.3153937800 99.8153571429 49.5727000000
4097 2 59.8871277086 103.6503571429 52.7592000000
4098 1 60.9941152086 105.5678571429 51.8097000000
4099 2 63.2083009229 105.5678571429 52.7592000000
4100 1 64.3153937800 103.6503571429 51.8097000000
4101 2 59.8871277086 103.6503571429 48.6232000000
4102 1 60.9941152086 105.5678571429 49.5727000000
4103 2 63.2083009229 105.5678571429 48.6232000000
4104 1 64.3153937800 103.6503571429 49.5727000000
4105 2 66.5295056179 99.8153571429 52.7592000000
4106 1 67.6365984750 101.7328571429 51.8097000000
4107 2 69.8506788321 101.7328571429 52.7592000000
4108 1 70.9577716893 99.8153571429 51.8097000000
4109 2 66.5295056179 99.8153571429 48.6232000000
4110 1 67.6365984750 101.7328571429 49.5727000000
4111 2 69.8506788321 101.7328571429 48.6232000000
4112 1 70.9577716893 99.8153571429 49.5727000000
4113 2 66.5295056179 103.6503571429 52.7592000000
4114 1 67.6365984750 105.5678571429 51.8097000000
4115 2 69.8506788321 105.5678571429 52.7592000000
4116 1 70.9577716893 103.6503571429 51.8097000000
4117 2 66.5295056179 103.6503571429 48.6232000000
4118 1 67.6365984750 105.5678571429 49.5727000000
4119 2 69.8506788321 105.5678571429 48.6232000000
4120 1 70.9577716893 103.6503571429 49.5727000000
4121 1 74.2789449036 101.7328571429 51.8097000000
4122 2 76.4931306179 101.7328571429 52.7592000000
4123 1 77.6002234750 99.8153571429 51.8097000000
4124 2 73.1719574036 99.8153571429 48.6232000000
4125 1 74.2789449036 101.7328571429 49.5727000000
4126 2 76.4931306179 101.7328571429 48.6232000000
4127 1 77.6002234750 99.8153571429 49.5727000000
4128 2 73.1719574036 103.6503571429 52.7592000000
4129 1 74.2789449036 105.5678571429 51.8097000000
4130 2 76.4931306179 105.5678571429 52.7592000000
4131 1 77.6002234750 103.6503571429 51.8097000000
4132 2 73.1719574036 103.6503571429 48.6232000000
4133 1 74.2789449036 105.5678571429 49.5727000000
4134 2 76.4931306179 105.5678571429 48.6232000000
4135 1 77.6002234750 103.6503571429 49.5727000000
4136 2 79.8143353129 99.8153571429 52.7592000000
4137 1 80.9214281700 101.7328571429 51.8097000000
4138 2 83.1355085271 101.7328571429 52.7592000000
4139 1 84.2426013843 99.8153571429 51.8097000000
4140 2 79.8143353129 99.8153571429 48.6232000000
4141 1 80.9214281700 101.7328571429 49.5727000000
4142 2 83.1355085271 101.7328571429 48.6232000000
4143 2 79.8143353129 103.6503571429 52.7592000000
4144 1 80.9214281700 105.5678571429 51.8097000000
4145 2 83.1355085271 105.5678571429 52.7592000000
4146 1 84.2426013843 103.6503571429 51.8097000000
4147 2 79.8143353129 103.6503571429 48.6232000000
4148 1 80.9214281700 105.5678571429 49.5727000000
4149 2 83.1355085271 105.5678571429 48.6232000000
4150 1 84.2426013843 103.6503571429 49.5727000000
4151 2 86.4567870986 99.8153571429 52.7592000000
4152 1 87.5637745986 101.7328571429 51.8097000000
4153 2 89.7779603129 101.7328571429 52.7592000000
4154 1 90.8850531700 99.8153571429 51.8097000000
4155 2 86.4567870986 99.8153571429 48.6232000000
4156 1 87.5637745986 101.7328571429 49.5727000000
4157 2 89.7779603129 101.7328571429 48.6232000000
4158 1 90.8850531700 99.8153571429 49.5727000000
4159 2 86.4567870986 103.6503571429 52.7592000000
4160 1 87.5637745986 105.5678571429 51.8097000000
4161 2 89.7779603129 105.5678571429 52.7592000000
4162 1 90.8850531700 103.6503571429 51.8097000000
4163 2 86.4567870986 103.6503571429 48.6232000000
4164 1 87.5637745986 105.5678571429 49.5727000000
4165 2 89.7779603129 105.5678571429 48.6232000000
4166 1 90.8850531700 103.6503571429 49.5727000000
4167 2 93.0991650079 99.8153571429 52.7592000000
4168 1 94.2062578650 101.7328571429 51.8097000000
4169 2 96.4203382221 101.7328571429 52.7592000000
4170 1 97.5274310793 99.8153571429 51.8097000000
4171 2 93.0991650079 99.8153571429 48.6232000000
4172 1 94.2062578650 101.7328571429 49.5727000000
4173 2 96.4203382221 101.7328571429 48.6232000000
4174 1 97.5274310793 99.8153571429 49.5727000000
4175 2 93.0991650079 103.6503571429 52.7592000000
4176 1 94.2062578650 105.5678571429 51.8097000000
4177 1 97.5274310793 103.6503571429 51.8097000000
4178 2 93.0991650079 103.6503571429 48.6232000000
4179 1 94.2062578650 105.5678571429 49.5727000000
4180 2 96.4203382221 105.5678571429 48.6232000000
4181 1 97.5274310793 103.6503571429 49.5727000000
4182 2 99.7416167936 99.8153571429 52.7592000000
4183 1 100.8486042936 101.7328571429 51.8097000000
4184 2 103.0627900079 101.7328571429 52.7592000000
4185 1 104.1698828650 99.8153571429 51.8097000000
4186 2 99.7416167936 99.8153571429 48.6232000000
4187 1 100.8486042936 101.7328571429 49.5727000000
4188 2 103.0627900079 101.7328571429 48.6232000000
4189 1 104.1698828650 99.8153571429 49.5727000000
4190 2 99.7416167936 103.6503571429 52.7592000000
4191 1 100.8486042936 105.5678571429 51.8097000000
4192 2 103.0627900079 105.5678571429 52.7592000000
4193 1 104.1698828650 103.6503571429 51.8097000000
4194 2 99.7416167936 103.6503571429 48.6232000000
4195 1 100.8486042936 105.5678571429 49.5727000000
4196 2 103.0627900079 105.5678571429 48.6232000000
4197 1 104.1698828650 103.6503571429 49.5727000000
4198 2 106.3839947029 99.8153571429 52.7592000000
4199 1 107.4910875600 101.7328571429 51.8097000000
4200 2 109.7051679171 101.7328571429 52.7592000000
4201 1 110.8122607743 99.8153571429 51.8097000000
4202 2 106.3839947029 99.8153571429 48.6232000000
4203 1 107.4910875600 101.7328571429 49.5727000000
4204 2 109.7051679171 101.7328571429 48.6232000000
4205 1 110.8122607743 99.8153571429 49.5727000000
4206 2 106.3839947029 103.6503571429 52.7592000000
4207 1 107.4910875600 105.5678571429 51.8097000000
4208 2 109.7051679171 105.5678571429 52.7592000000
4209 1 110.8122607743 103.6503571429 51.8097000000
4210 2 106.3839947029 103.6503571429 48.6232000000
4211 1 107.4910875600 105.5678571429 49.5727000000
4212 2 109.7051679171 105.5678571429 48.6232000000
4213 1 110.8122607743 103.6503571429 49.5727000000
4214 1 114.1334339886 101.7328571429 51.8097000000
4215 2 116.3476197029 101.7328571429 52.7592000000
4216 1 117.4547125600 99.8153571429 51.8097000000
4217 2 113.0264464886 99.8153571429 48.6232000000
4218 1 114.1334339886 101.7328571429 49.5727000000
4219 2 116.3476197029 101.7328571429 48.6232000000
4220 1 117.4547125600 99.8153571429 49.5727000000
4221 2 113.0264464886 103.6503571429 52.7592000000
4222 1 114.1334339886 105.5678571429 51.8097000000
4223 2 116.3476197029 105.5678571429 52.7592000000
4224 1 117.4547125600 103.6503571429 51.8097000000
4225 2 113.0264464886 103.6503571429 48.6232000000
4226 1 114.1334339886 105.5678571429 49.5727000000
4227 2 116.3476197029 105.5678571429 48.6232000000
4228 1 117.4547125600 103.6503571429 49.5727000000
4229 2 119.6688243979 99.8153571429 52.7592000000
4230 1 120.7759172550 101.7328571429 51.8097000000
4231 2 122.9899976121 101.7328571429 52.7592000000
4232 1 124.0970904693 99.8153571429 51.8097000000
4233 2 119.6688243979 99.8153571429 48.6232000000
4234 1 120.7759172550 101.7328571429 49.5727000000
4235 2 122.9899976121 101.7328571429 48.6232000000
4236 1 124.0970904693 99.8153571429 49.5727000000
4237 2 119.6688243979 103.6503571429 52.7592000000
4238 1 120.7759172550 105.5678571429 51.8097000000
4239 2 122.9899976121 105.5678571429 52.7592000000
4240 1 124.0970904693 103.6503571429 51.8097000000
4241 2 119.6688243979 103.6503571429 48.6232000000
4242 1 120.7759172550 105.5678571429 49.5727000000
4243 2 122.9899976121 105.5678571429 48.6232000000
4244 1 124.0970904693 103.6503571429 49.5727000000
4245 2 126.3112761836 99.8153571429 52.7592000000
4246 1 127.4182636836 101.7328571429 51.8097000000
4247 2 129.6324493979 101.7328571429 52.7592000000
4248 1 130.7395422550 99.8153571429 51.8097000000
4249 1 127.4182636836 101.7328571429 49.5727000000
4250 2 129.6324493979 101.7328571429 48.6232000000
4251 1 130.7395422550 99.8153571429 49.5727000000
4252 2 126.3112761836 103.6503571429 52.7592000000
4253 1 127.4182636836 105.5678571429 51.8097000000
4254 2 129.6324493979 105.5678571429 52.7592000000
4255 1 130.7395422550 103.6503571429 51.8097000000
4256 2 126.3112761836 103.6503571429 48.6232000000
4257 1 127.4182636836 105.5678571429 49.5727000000
4258 2 129.6324493979 105.5678571429 48.6232000000
4259 1 130.7395422550 103.6503571429 49.5727000000
4260 2 0.1053571429 107.4853571429 52.7592000000
4261 1 4.5336232143 107.4853571429 51.8097000000
4262 2 0.1053571429 107.4853571429 48.6232000000
4263 1 1.2124500000 109.4028571429 49.5727000000
4264 2 3.4265303571 109.4028571429 48.6232000000
4265 1 4.5336232143 107.4853571429 49.5727000000
4266 2 0.1053571429 111.3203571429 52.7592000000
4267 1 1.2124500000 113.2378571429 51.8097000000
4268 2 3.4265303571 113.2378571429 52.7592000000
4269 1 4.5336232143 111.3203571429 51.8097000000
4270 2 0.1053571429 111.3203571429 48.6232000000
4271 1 1.2124500000 113.2378571429 49.5727000000
4272 2 3.4265303571 113.2378571429 48.6232000000
4273 1 4.5336232143 111.3203571429 49.5727000000
4274 2 6.7478089286 107.4853571429 52.7592000000
4275 1 7.8547964286 109.4028571429 51.8097000000
4276 2 10.0689821429 109.4028571429 52.7592000000
4277 1 11.1760750000 107.4853571429 51.8097000000
4278 2 6.7478089286 107.4853571429 48.6232000000
4279 1 7.8547964286 109.4028571429 49.5727000000
4280 2 10.0689821429 109.4028571429 48.6232000000
4281 2 6.7478089286 111.3203571429 52.7592000000
4282 1 7.8547964286 113.2378571429 51.8097000000
4283 2 10.0689821429 113.2378571429 52.7592000000
4284 1 11.1760750000 111.3203571429 51.8097000000
4285 2 6.7478089286 111.3203571429 48.6232000000
4286 1 7.8547964286 113.2378571429 49.5727000000
4287 2 10.0689821429 113.2378571429 48.6232000000
4288 1 11.1760750000 111.3203571429 49.5727000000
4289 2 13.3901868379 107.4853571429 52.7592000000
4290 1 14.4972796950 109.4028571429 51.8097000000
4291 2 16.7113600521 109.4028571429 52.7592000000
4292 1 17.8184529093 107.4853571429 51.8097000000
4293 1 14.4972796950 109.4028571429 49.5727000000
4294 2 16.7113600521 109.4028571429 48.6232000000
4295 1 17.8184529093 107.4853571429 49.5727000000
4296 2 13.3901868379 111.3203571429 52.7592000000
4297 1 14.4972796950 113.2378571429 51.8097000000
4298 2 16.7113600521 113.2378571429 52.7592000000
4299 1 17.8184529093 111.3203571429 51.8097000000
4300 2 13.3901868379 111.3203571429 48.6232000000
4301 1 14.4972796950 113.2378571429 49.5727000000
4302 2 16.7113600521 113.2378571429 48.6232000000
4303 1 17.8184529093 111.3203571429 49.5727000000
4304 2 20.0326386236 107.4853571429 52.7592000000
4305 1 21.1396261236 109.4028571429 51.8097000000
4306 2 23.3538118379 109.4028571429 52.7592000000
4307 1 24.4609046950 107.4853571429 51.8097000000
4308 2 20.0326386236 107.4853571429 48.6232000000
4309 1 21.1396261236 109.4028571429 49.5727000000
4310 2 23.3538118379 109.4028571429 48.6232000000
4311 2 20.0326386236 111.3203571429 52.7592000000
4312 1 21.1396261236 113.2378571429 51.8097000000
4313 2 23.3538118379 113.2378571429 52.7592000000
4314 1 24.4609046950 111.3203571429 51.8097000000
4315 2 20.0326386236 111.3203571429 48.6232000000
4316 1 21.1396261236 113.2378571429 49.5727000000
4317 2 23.3538118379 113.2378571429 48.6232000000
4318 1 24.4609046950 111.3203571429 49.5727000000
4319 2 26.6750165329 107.4853571429 52.7592000000
4320 1 27.7821093900 109.4028571429 51.8097000000
4321 2 29.9961897471 109.4028571429 52.7592000000
4322 1 31.1032826043 107.4853571429 51.8097000000
4323 1 27.7821093900 109.4028571429 49.5727000000
4324 2 29.9961897471 109.4028571429 48.6232000000
4325 1 31.1032826043 107.4853571429 49.5727000000
4326 2 26.6750165329 111.3203571429 52.7592000000
4327 1 27.7821093900 113.2378571429 51.8097000000
4328 2 29.9961897471 113.2378571429 52.7592000000
4329 1 31.1032826043 111.3203571429 51.8097000000
4330 2 26.6750165329 111.3203571429 48.6232000000
4331 1 27.7821093900 113.2378571429 49.5727000000
4332 2 29.9961897471 113.2378571429 48.6232000000
4333 1 31.1032826043 111.3203571429 49.5727000000
4334 2 33.3174683186 107.4853571429 52.7592000000
4335 1 34.4244558186 109.4028571429 51.8097000000
4336 2 36.6386415329 109.4028571429 52.7592000000
4337 1 37.7457343900 107.4853571429 51.8097000000
4338 2 33.3174683186 107.4853571429 48.6232000000
4339 1 34.4244558186 109.4028571429 49.5727000000
4340 2 36.6386415329 109.4028571429 48.6232000000
4341 1 37.7457343900 107.4853571429 49.5727000000
4342 2 33.3174683186 111.3203571429 52.7592000000
4343 1 34.4244558186 113.2378571429 51.8097000000
4344 2 36.6386415329 113.2378571429 52.7592000000
4345 1 37.7457343900 111.3203571429 51.8097000000
4346 2 33.3174683186 111.3203571429 48.6232000000
4347 1 34.4244558186 113.2378571429 49.5727000000
4348 2 36.6386415329 113.2378571429 48.6232000000
4349 1 37.7457343900 111.3203571429 49.5727000000
4350 2 39.9598462279 107.4853571429 52.7592000000
4351 1 41.0669390850 109.4028571429 51.8097000000
4352 2 43.2810194421 109.4028571429 52.7592000000
4353 1 44.3881122993 107.4853571429 51.8097000000
4354 2 39.9598462279 107.4853571429 48.6232000000
4355 1 41.0669390850 109.4028571429 49.5727000000
4356 2 43.2810194421 109.4028571429 48.6232000000
4357 1 44.3881122993 107.4853571429 49.5727000000
4358 2 39.9598462279 111.3203571429 52.7592000000
4359 1 41.0669390850 113.2378571429 51.8097000000
4360 2 43.2810194421 113.2378571429 52.7592000000
4361 1 44.3881122993 111.3203571429 51.8097000000
4362 2 39.9598462279 111.3203571429 48.6232000000
4363 1 41.0669390850 113.2378571429 49.5727000000
4364 2 43.2810194421 113.2378571429 48.6232000000
4365 1 44.3881122993 111.3203571429 49.5727000000
4366 2 46.6022980136 107.4853571429 52.7592000000
4367 1 47.7092855136 109.4028571429 51.8097000000
4368 2 49.9234712279 109.4028571429 52.7592000000
4369 1 51.0305640850 107.4853571429 51.8097000000
4370 2 46.6022980136 107.4853571429 48.6232000000
4371 1 47.7092855136 109.4028571429 49.5727000000
4372 2 49.9234712279 109.4028571429 48.6232000000
4373 1 51.0305640850 107.4853571429 49.5727000000
4374 2 46.6022980136 111.3203571429 52.7592000000
4375 1 47.7092855136 113.2378571429 51.8097000000
4376 2 49.9234712279 113.2378571429 52.7592000000
4377 1 51.0305640850 111.3203571429 51.8097000000
4378 2 46.6022980136 111.3203571429 48.6232000000
4379 1 47.7092855136 113.2378571429 49.5727000000
4380 2 49.9234712279 113.2378571429 48.6232000000
4381 1 51.0305640850 111.3203571429 49.5727000000
4382 2 53.2446759229 107.4853571429 52.7592000000
4383 1 54.3517687800 109.4028571429 51.8097000000
4384 2 53.2446759229 107.4853571429 48.6232000000
4385 1 54.3517687800 109.4028571429 49.5727000000
4386 2 56.5658491371 109.4028571429 48.6232000000
4387 1 57.6729419943 107.4853571429 49.5727000000
4388 2 53.2446759229 111.3203571429 52.7592000000
4389 1 54.3517687800 113.2378571429 51.8097000000
4390 2 56.5658491371 113.2378571429 52.7592000000
4391 1 57.6729419943 111.3203571429 51.8097000000
4392 2 53.2446759229 111.3203571429 48.6232000000
4393 1 54.3517687800 113.2378571429 49.5727000000
4394 2 56.5658491371 113.2378571429 48.6232000000
4395 1 57.6729419943 111.3203571429 49.5727000000
4396 2 59.8871277086 107.4853571429 52.7592000000
4397 1 60.9941152086 109.4028571429 51.8097000000
4398 2 63.2083009229 109.4028571429 52.7592000000
4399 1 64.3153937800 107.4853571429 51.8097000000
4400 2 59.8871277086 107.4853571429 48.6232000000
4401 1 60.9941152086 109.4028571429 49.5727000000
4402 2 63.2083009229 109.4028571429 48.6232000000
4403 1 64.3153937800 107.4853571429 49.5727000000
4404 2 59.8871277086 111.3203571429 52.7592000000
4405 1 60.9941152086 113.2378571429 51.8097000000
4406 2 63.2083009229 113.2378571429 52.7592000000
4407 1 64.3153937800 111.3203571429 51.8097000000
4408 2 59.8871277086 111.3203571429 48.6232000000
4409 1 60.9941152086 113.2378571429 49.5727000000
4410 2 63.2083009229 113.2378571429 48.6232000000
4411 1 64.3153937800 111.3203571429 49.5727000000
4412 2 66.5295056179 107.4853571429 52.7592000000
4413 1 67.6365984750 109.4028571429 51.8097000000
4414 2 69.8506788321 109.4028571429 52.7592000000
4415 1 70.9577716893 107.4853571429 51.8097000000
4416 2 66.5295056179 107.4853571429 48.6232000000
4417 1 67.6365984750 109.4028571429 49.5727000000
4418 2 66.5295056179 111.3203571429 52.7592000000
4419 1 67.6365984750 113.2378571429 51.8097000000
4420 2 69.8506788321 113.2378571429 52.7592000000
4421 1 70.9577716893 111.3203571429 51.8097000000
4422 2 66.5295056179 111.3203571429 48.6232000000
4423 1 67.6365984750 113.2378571429 49.5727000000
4424 2 69.8506788321 113.2378571429 48.6232000000
4425 1 70.9577716893 111.3203571429 49.5727000000
4426 2 73.1719574036 107.4853571429 52.7592000000
4427 1 74.2789449036 109.4028571429 51.8097000000
4428 2 76.4931306179 109.4028571429 52.7592000000
4429 1 77.6002234750 107.4853571429 51.8097000000
4430 2 73.1719574036 107.4853571429 48.6232000000
4431 1 74.2789449036 109.4028571429 49.5727000000
4432 2 76.4931306179 109.4028571429 48.6232000000
4433 1 77.6002234750 107.4853571429 49.5727000000
4434 2 73.1719574036 111.3203571429 52.7592000000
4435 1 74.2789449036 113.2378571429 51.8097000000
4436 2 76.4931306179 113.2378571429 52.7592000000
4437 1 77.6002234750 111.3203571429 51.8097000000
4438 2 73.1719574036 111.3203571429 48.6232000000
4439 1 74.2789449036 113.2378571429 49.5727000000
4440 2 76.4931306179 113.2378571429 48.6232000000
4441 1 77.6002234750 111.3203571429 49.5727000000
4442 2 79.8143353129 107.4853571429 52.7592000000
4443 1 80.9214281700 109.4028571429 51.8097000000
4444 2 83.1355085271 109.4028571429 52.7592000000
4445 1 84.2426013843 107.4853571429 51.8097000000
4446 2 79.8143353129 107.4853571429 48.6232000000
4447 1 80.9214281700 109.4028571429 49.5727000000
4448 2 83.1355085271 109.4028571429 48.6232000000
4449 1 84.2426013843 107.4853571429 49.5727000000
4450 2 79.8143353129 111.3203571429 52.7592000000
4451 1 80.9214281700 113.2378571429 51.8097000000
4452 2 83.1355085271 113.2378571429 52.7592000000
4453 1 84.2426013843 111.3203571429 51.8097000000
4454 2 79.8143353129 111.3203571429 48.6232000000
4455 1 80.9214281700 113.2378571429 49.5727000000
4456 2 86.4567870986 107.4853571429 52.7592000000
4457 1 87.5637745986 109.4028571429 51.8097000000
4458 2 89.7779603129 109.4028571429 52.7592000000
4459 1 90.8850531700 107.4853571429 51.8097000000
4460 2 86.4567870986 107.4853571429 48.6232000000
4461 1 87.5637745986 109.4028571429 49.5727000000
4462 2 89.7779603129 109.4028571429 48.6232000000
4463 1 90.8850531700 107.4853571429 49.5727000000
4464 2 86.4567870986 111.3203571429 52.7592000000
4465 1 87.5637745986 113.2378571429 51.8097000000
4466 2 89.7779603129 113.2378571429 52.7592000000
4467 1 90.8850531700 111.3203571429 51.8097000000
4468 2 86.4567870986 111.3203571429 48.6232000000
4469 1 87.5637745986 113.2378571429 49.5727000000
4470 2 89.7779603129 113.2378571429 48.6232000000
4471 1 90.8850531700 111.3203571429 49.5727000000
4472 2 93.0991650079 107.4853571429 52.7592000000
4473 1 94.2062578650 109.4028571429 51.8097000000
4474 2 96.4203382221 109.4028571429 52.7592000000
4475 2 93.0991650079 107.4853571429 48.6232000000
4476 1 94.2062578650 109.4028571429 49.5727000000
4477 2 96.4203382221 109.4028571429 48.6232000000
4478 1 97.5274310793 107.4853571429 49.5727000000
4479 2 93.0991650079 111.3203571429 52.7592000000
4480 1 94.2062578650 113.2378571429 51.8097000000
4481 2 96.4203382221 113.2378571429 52.7592000000
4482 1 97.5274310793 111.3203571429 51.8097000000
4483 2 93.0991650079 111.3203571429 48.6232000000
4484 1 94.2062578650 113.2378571429 49.5727000000
4485 2 96.4203382221 113.2378571429 48.6232000000
4486 1 97.5274310793 111.3203571429 49.5727000000
4487 2 99.7416167936 107.4853571429 52.7592000000
4488 1 100.8486042936 109.4028571429 51.8097000000
4489 2 103.0627900079 109.4028571429 52.7592000000
4490 1 104.1698828650 107.4853571429 51.8097000000
4491 2 99.7416167936 107.4853571429 48.6232000000
4492 1 100.8486042936 109.4028571429 49.5727000000
4493 2 103.0627900079 109.4028571429 48.6232000000
4494 1 104.1698828650 107.4853571429 49.5727000000
4495 2 99.7416167936 111.3203571429 52.7592000000
4496 1 100.8486042936 113.2378571429 51.8097000000
4497 2 103.0627900079 113.2378571429 52.7592000000
4498 1 104.1698828650 111.3203571429 51.8097000000
4499 2 99.7416167936 111.3203571429 48.6232000000
4500 1 100.8486042936 113.2378571429 49.5727000000
4501 2 103.0627900079 113.2378571429 48.6232000000
4502 1 104.1698828650 111.3203571429 49.5727000000
4503 2 106.3839947029 107.4853571429 52.7592000000
4504 1 107.4910875600 109.4028571429 51.8097000000
4505 2 106.3839947029 107.4853571429 48.6232000000
4506 1 107.4910875600 109.4028571429 49.5727000000
4507 2 109.7051679171 109.4028571429 48.6232000000
4508 1 110.8122607743 107.4853571429 49.5727000000
4509 2 106.3839947029 111.3203571429 52.7592000000
4510 1 107.4910875600 113.2378571429 51.8097000000
4511 2 109.7051679171 113.2378571429 52.7592000000
4512 1 110.8122607743 111.3203571429 51.8097000000
4513 2 106.3839947029 111.3203571429 48.6232000000
4514 1 107.4910875600 113.2378571429 49.5727000000
4515 2 109.7051679171 113.2378571429 48.6232000000
4516 1 110.8122607743 111.3203571429 49.5727000000
4517 2 113.0264464886 107.4853571429 52.7592000000
4518 1 114.1334339886 109.4028571429 51.8097000000
4519 2 116.3476197029 109.4028571429 52.7592000000
4520 2 113.0264464886 107.4853571429 48.6232000000
4521 1 114.1334339886 109.4028571429 49.5727000000
4522 2 116.3476197029 109.4028571429 48.6232000000
4523 1 117.4547125600 107.4853571429 49.5727000000
4524 2 113.0264464886 111.3203571429 52.7592000000
4525 1 114.1334339886 113.2378571429 51.8097000000
4526 2 116.3476197029 113.2378571429 52.7592000000
4527 1 117.4547125600 111.3203571429 51.8097000000
4528 2 113.0264464886 111.3203571429 48.6232000000
4529 1 114.1334339886 113.2378571429 49.5727000000
4530 2 116.3476197029 113.2378571429 48.6232000000
4531 1 117.4547125600 111.3203571429 49.5727000000
4532 1 120.7759172550 109.4028571429 51.8097000000
4533 2 122.9899976121 109.4028571429 52.7592000000
4534 1 124.0970904693 107.4853571429 51.8097000000
4535 2 119.6688243979 107.4853571429 48.6232000000
4536 1 120.7759172550 109.4028571429 49.5727000000
4537 2 122.9899976121 109.4028571429 48.6232000000
4538 1 124.0970904693 107.4853571429 49.5727000000
4539 2 119.6688243979 111.3203571429 52.7592000000
4540 1 120.7759172550 113.2378571429 51.8097000000
4541 2 122.9899976121 113.2378571429 52.7592000000
4542 1 124.0970904693 111.3203571429 51.8097000000
4543 2 119.6688243979 111.3203571429 48.6232000000
4544 1 120.7759172550 113.2378571429 49.5727000000
4545 2 122.9899976121 113.2378571429 48.6232000000
4546 1 124.0970904693 111.3203571429 49.5727000000
4547 2 129.6324493979 109.4028571429 52.7592000000
4548 1 130.7395422550 107.4853571429 51.8097000000
4549 2 126.3112761836 107.4853571429 48.6232000000
4550 1 127.4182636836 109.4028571429 49.5727000000
4551 2 129.6324493979 109.4028571429 48.6232000000
4552 1 130.7395422550 107.4853571429 49.5727000000
4553 2 126.3112761836 111.3203571429 52.7592000000
4554 1 127.4182636836 113.2378571429 51.8097000000
4555 2 129.6324493979 113.2378571429 52.7592000000
4556 1 130.7395422550 111.3203571429 51.8097000000
4557 2 126.3112761836 111.3203571429 48.6232000000
4558 1 127.4182636836 113.2378571429 49.5727000000
4559 2 129.6324493979 113.2378571429 48.6232000000
4560 1 130.7395422550 111.3203571429 49.5727000000
4561 2 0.1053571429 115.1553571429 52.7592000000
4562 1 1.2124500000 117.0728571429 51.8097000000
4563 2 3.4265303571 117.0728571429 52.7592000000
4564 1 4.5336232143 115.1553571429 51.8097000000
4565 2 0.1053571429 115.1553571429 48.6232000000
4566 1 1.2124500000 117.0728571429 49.5727000000
4567 2 3.4265303571 117.0728571429 48.6232000000
4568 1 4.5336232143 115.1553571429 49.5727000000
4569 2 0.1053571429 118.9903571429 52.7592000000
4570 1 1.2124500000 120.9078571429 51.8097000000
4571 2 3.4265303571 120.9078571429 52.7592000000
4572 1 4.5336232143 118.9903571429 51.8097000000
4573 2 0.1053571429 118.9903571429 48.6232000000
4574 1 1.2124500000 120.9078571429 49.5727000000
4575 2 3.4265303571 120.9078571429 48.6232000000
4576 1 4.5336232143 118.9903571429 49.5727000000
4577 2 6.7478089286 115.1553571429 52.7592000000
4578 1 7.8547964286 117.0728571429 51.8097000000
4579 2 10.0689821429 117.0728571429 52.7592000000
4580 1 11.1760750000 115.1553571429 51.8097000000
4581 2 6.7478089286 115.1553571429 48.6232000000
4582 1 7.8547964286 117.0728571429 49.5727000000
4583 2 10.0689821429 117.0728571429 48.6232000000
4584 1 11.1760750000 115.1553571429 49.5727000000
4585 2 6.7478089286 118.9903571429 52.7592000000
4586 1 7.8547964286 120.9078571429 51.8097000000
4587 2 10.0689821429 120.9078571429 52.7592000000
4588 1 11.1760750000 118.9903571429 51.8097000000
4589 2 6.7478089286 118.9903571429 48.6232000000
4590 1 7.8547964286 120.9078571429 49.5727000000
4591 2 10.0689821429 120.9078571429 48.6232000000
4592 2 13.3901868379 115.1553571429 52.7592000000
4593 1 14.4972796950 117.0728571429 51.8097000000
4594 2 16.7113600521 117.0728571429 52.7592000000
4595 1 17.8184529093 115.1553571429 51.8097000000
4596 2 13.3901868379 115.1553571429 48.6232000000
4597 1 14.4972796950 117.0728571429 49.5727000000
4598 2 16.7113600521 117.0728571429 48.6232000000
4599 1 17.8184529093 115.1553571429 49.5727000000
4600 2 13.3901868379 118.9903571429 52.7592000000
4601 1 14.4972796950 120.9078571429 51.8097000000
4602 2 16.7113600521 120.9078571429 52.7592000000
4603 1 17.8184529093 118.9903571429 51.8097000000
4604 1 14.4972796950 120.9078571429 49.5727000000
4605 2 16.7113600521 120.9078571429 48.6232000000
4606 1 17.8184529093 118.9903571429 49.5727000000
4607 2 20.0326386236 115.1553571429 52.7592000000
4608 2 23.3538118379 117.0728571429 52.7592000000
4609 1 24.4609046950 115.1553571429 51.8097000000
4610 2 20.0326386236 115.1553571429 48.6232000000
4611 1 21.1396261236 117.0728571429 49.5727000000
4612 2 23.3538118379 117.0728571429 48.6232000000
4613 1 24.4609046950 115.1553571429 49.5727000000
4614 1 21.1396261236 120.9078571429 51.8097000000
4615 2 23.3538118379 120.9078571429 52.7592000000
4616 1 24.4609046950 118.9903571429 51.8097000000
4617 2 20.0326386236 118.9903571429 48.6232000000
4618 1 21.1396261236 120.9078571429 49.5727000000
4619 2 23.3538118379 120.9078571429 48.6232000000
4620 1 24.4609046950 118.9903571429 49.5727000000
4621 2 26.6750165329 115.1553571429 52.7592000000
4622 1 27.7821093900 117.0728571429 51.8097000000
4623 2 29.9961897471 117.0728571429 52.7592000000
4624 1 31.1032826043 115.1553571429 51.8097000000
4625 2 26.6750165329 115.1553571429 48.6232000000
4626 1 31.1032826043 115.1553571429 49.5727000000
4627 2 26.6750165329 118.9903571429 52.7592000000
4628 1 27.7821093900 120.9078571429 51.8097000000
4629 2 29.9961897471 120.9078571429 52.7592000000
4630 1 31.1032826043 118.9903571429 51.8097000000
4631 2 26.6750165329 118.9903571429 48.6232000000
4632 1 27.7821093900 120.9078571429 49.5727000000
4633 2 29.9961897471 120.9078571429 48.6232000000
4634 1 31.1032826043 118.9903571429 49.5727000000
4635 2 33.3174683186 115.1553571429 52.7592000000
4636 1 34.4244558186 117.0728571429 51.8097000000
4637 2 36.6386415329 117.0728571429 52.7592000000
4638 2 33.3174683186 115.1553571429 48.6232000000
4639 1 34.4244558186 117.0728571429 49.5727000000
4640 2 36.6386415329 117.0728571429 48.6232000000
4641 1 37.7457343900 115.1553571429 49.5727000000
4642 2 33.3174683186 118.9903571429 52.7592000000
4643 1 34.4244558186 120.9078571429 51.8097000000
4644 2 36.6386415329 120.9078571429 52.7592000000
4645 1 37.7457343900 118.9903571429 51.8097000000
4646 2 33.3174683186 118.9903571429 48.6232000000
4647 1 34.4244558186 120.9078571429 49.5727000000
4648 2 36.6386415329 120.9078571429 48.6232000000
4649 1 37.7457343900 118.9903571429 49.5727000000
4650 1 41.0669390850 117.0728571429 51.8097000000
4651 2 43.2810194421 117.0728571429 52.7592000000
4652 1 44.3881122993 115.1553571429 51.8097000000
4653 2 39.9598462279 115.1553571429 48.6232000000
4654 1 41.0669390850 117.0728571429 49.5727000000
4655 2 43.2810194421 117.0728571429 48.6232000000
4656 1 44.3881122993 115.1553571429 49.5727000000
4657 2 39.9598462279 118.9903571429 52.7592000000
4658 1 41.0669390850 120.9078571429 51.8097000000
4659 2 43.2810194421 120.9078571429 52.7592000000
4660 1 44.3881122993 118.9903571429 51.8097000000
4661 2 39.9598462279 118.9903571429 48.6232000000
4662 1 41.0669390850 120.9078571429 49.5727000000
4663 2 43.2810194421 120.9078571429 48.6232000000
4664 1 44.3881122993 118.9903571429 49.5727000000
4665 2 46.6022980136 115.1553571429 52.7592000000
4666 1 47.7092855136 117.0728571429 51.8097000000
4667 2 49.9234712279 117.0728571429 52.7592000000
4668 1 51.0305640850 115.1553571429 51.8097000000
4669 2 46.6022980136 115.1553571429 48.6232000000
4670 2 49.9234712279 117.0728571429 48.6232000000
4671 1 51.0305640850 115.1553571429 49.5727000000
4672 2 46.6022980136 118.9903571429 52.7592000000
4673 1 47.7092855136 120.9078571429 51.8097000000
4674 2 49.9234712279 120.9078571429 52.7592000000
4675 1 51.0305640850 118.9903571429 51.8097000000
4676 1 47.7092855136 120.9078571429 49.5727000000
4677 2 49.9234712279 120.9078571429 48.6232000000
4678 1 51.0305640850 118.9903571429 49.5727000000
4679 2 53.2446759229 115.1553571429 52.7592000000
4680 1 54.3517687800 117.0728571429 51.8097000000
4681 2 56.5658491371 117.0728571429 52.7592000000
4682 1 57.6729419943 115.1553571429 51.8097000000
4683 2 53.2446759229 115.1553571429 48.6232000000
4684 1 54.3517687800 117.0728571429 49.5727000000
4685 2 56.5658491371 117.0728571429 48.6232000000
4686 1 57.6729419943 115.1553571429 49.5727000000
4687 2 53.2446759229 118.9903571429 52.7592000000
4688 1 54.3517687800 120.9078571429 51.8097000000
4689 2 56.5658491371 120.9078571429 52.7592000000
4690 1 57.6729419943 118.9903571429 51.8097000000
4691 2 53.2446759229 118.9903571429 48.6232000000
4692 1 54.3517687800 120.9078571429 49.5727000000
4693 2 56.5658491371 120.9078571429 48.6232000000
4694 1 57.6729419943 118.9903571429 49.5727000000
4695 2 59.8871277086 115.1553571429 52.7592000000
4696 1 60.9941152086 117.0728571429 51.8097000000
4697 2 63.2083009229 117.0728571429 52.7592000000
4698 1 64.3153937800 115.1553571429 51.8097000000
4699 2 59.8871277086 115.1553571429 48.6232000000
4700 1 60.9941152086 117.0728571429 49.5727000000
4701 2 63.2083009229 117.0728571429 48.6232000000
4702 1 64.3153937800 115.1553571429 49.5727000000
4703 2 59.8871277086 118.9903571429 52.7592000000
4704 1 60.9941152086 120.9078571429 51.8097000000
4705 2 63.2083009229 120.9078571429 52.7592000000
4706 2 59.8871277086 118.9903571429 48.6232000000
4707 1 60.9941152086 120.9078571429 49.5727000000
4708 2 63.2083009229 120.9078571429 48.6232000000
4709 1 64.3153937800 118.9903571429 49.5727000000
4710 2 66.5295056179 115.1553571429 52.7592000000
4711 1 67.6365984750 117.0728571429 51.8097000000
4712 2 69.8506788321 117.0728571429 52.7592000000
4713 1 70.9577716893 115.1553571429 51.8097000000
4714 2 66.5295056179 115.1553571429 48.6232000000
4715 1 67.6365984750 117.0728571429 49.5727000000
4716 2 69.8506788321 117.0728571429 48.6232000000
4717 1 70.9577716893 115.1553571429 49.5727000000
4718 1 67.6365984750 120.9078571429 51.8097000000
4719 2 69.8506788321 120.9078571429 52.7592000000
4720 1 70.9577716893 118.9903571429 51.8097000000
4721 2 66.5295056179 118.9903571429 48.6232000000
4722 1 67.6365984750 120.9078571429 49.5727000000
4723 2 69.8506788321 120.9078571429 48.6232000000
4724 1 70.9577716893 118.9903571429 49.5727000000
4725 2 73.1719574036 115.1553571429 52.7592000000
4726 1 74.2789449036 117.0728571429 51.8097000000
4727 2 76.4931306179 117.0728571429 52.7592000000
4728 1 77.6002234750 115.1553571429 51.8097000000
4729 2 73.1719574036 115.1553571429 48.6232000000
4730 1 74.2789449036 117.0728571429 49.5727000000
4731 2 76.4931306179 117.0728571429 48.6232000000
4732 1 77.6002234750 115.1553571429 49.5727000000
4733 2 73.1719574036 118.9903571429 52.7592000000
4734 1 74.2789449036 120.9078571429 51.8097000000
4735 2 76.4931306179 120.9078571429 52.7592000000
4736 1 77.6002234750 118.9903571429 51.8097000000
4737 2 76.4931306179 120.9078571429 48.6232000000
4738 1 77.6002234750 118.9903571429 49.5727000000
4739 2 79.8143353129 115.1553571429 52.7592000000
4740 1 80.9214281700 117.0728571429 51.8097000000
4741 2 83.1355085271 117.0728571429 52.7592000000
4742 1 84.2426013843 115.1553571429 51.8097000000
4743 2 79.8143353129 115.1553571429 48.6232000000
4744 1 80.9214281700 117.0728571429 49.5727000000
4745 2 83.1355085271 117.0728571429 48.6232000000
4746 1 84.2426013843 115.1553571429 49.5727000000
4747 2 79.8143353129 118.9903571429 52.7592000000
4748 1 80.9214281700 120.9078571429 51.8097000000
4749 2 83.1355085271 120.9078571429 52.7592000000
4750 1 84.2426013843 118.9903571429 51.8097000000
4751 2 79.8143353129 118.9903571429 48.6232000000
4752 1 80.9214281700 120.9078571429 49.5727000000
4753 2 83.1355085271 120.9078571429 48.6232000000
4754 1 84.2426013843 118.9903571429 49.5727000000
4755 2 86.4567870986 115.1553571429 52.7592000000
4756 1 87.5637745986 117.0728571429 51.8097000000
4757 2 89.7779603129 117.0728571429 52.7592000000
4758 1 90.8850531700 115.1553571429 51.8097000000
4759 2 86.4567870986 115.1553571429 48.6232000000
4760 1 87.5637745986 117.0728571429 49.5727000000
4761 2 89.7779603129 117.0728571429 48.6232000000
4762 1 90.8850531700 115.1553571429 49.5727000000
4763 2 86.4567870986 118.9903571429 52.7592000000
4764 1 87.5637745986 120.9078571429 51.8097000000
4765 2 89.7779603129 120.9078571429 52.7592000000
4766 1 90.8850531700 118.9903571429 51.8097000000
4767 2 86.4567870986 118.9903571429 48.6232000000
4768 1 87.5637745986 120.9078571429 49.5727000000
4769 2 89.7779603129 120.9078571429 48.6232000000
4770 1 90.8850531700 118.9903571429 49.5727000000
4771 2 93.0991650079 115.1553571429 52.7592000000
4772 1 94.2062578650 117.0728571429 51.8097000000
4773 2 96.4203382221 117.0728571429 52.7592000000
4774 1 97.5274310793 115.1553571429 51.8097000000
4775 2 93.0991650079 115.1553571429 48.6232000000
4776 1 94.2062578650 117.0728571429 49.5727000000
4777 2 96.4203382221 117.0728571429 48.6232000000
4778 1 97.5274310793 115.1553571429 49.5727000000
4779 2 93.0991650079 118.9903571429 52.7592000000
4780 1 94.2062578650 120.9078571429 51.8097000000
4781 2 96.4203382221 120.9078571429 52.7592000000
4782 1 97.5274310793 118.9903571429 51.8097000000
4783 2 93.0991650079 118.9903571429 48.6232000000
4784 1 94.2062578650 120.9078571429 49.5727000000
4785 2 96.4203382221 120.9078571429 48.6232000000
4786 1 97.5274310793 118.9903571429 49.5727000000
4787 2 99.7416167936 115.1553571429 52.7592000000
4788 1 100.8486042936 117.0728571429 51.8097000000
4789 2 103.0627900079 117.0728571429 52.7592000000
4790 1 104.1698828650 115.1553571429 51.8097000000
4791 2 99.7416167936 115.1553571429 48.6232000000
4792 1 100.8486042936 117.0728571429 49.5727000000
4793 2 103.0627900079 117.0728571429 48.6232000000
4794 1 104.1698828650 115.1553571429 49.5727000000
4795 2 103.0627900079 120.9078571429 52.7592000000
4796 1 104.1698828650 118.9903571429 51.8097000000
4797 2 99.7416167936 118.9903571429 48.6232000000
4798 1 100.8486042936 120.9078571429 49.5727000000
4799 2 103.0627900079 120.9078571429 48.6232000000
4800 1 104.1698828650 118.9903571429 49.5727000000
4801 2 106.3839947029 115.1553571429 52.7592000000
4802 1 107.4910875600 117.0728571429 51.8097000000
4803 2 109.7051679171 117.0728571429 52.7592000000
4804 1 110.8122607743 115.1553571429 51.8097000000
4805 2 106.3839947029 115.1553571429 48.6232000000
4806 1 107.4910875600 117.0728571429 49.5727000000
4807 2 109.7051679171 117.0728571429 48.6232000000
4808 1 110.8122607743 115.1553571429 49.5727000000
4809 2 106.3839947029 118.9903571429 52.7592000000
4810 1 107.4910875600 120.9078571429 51.8097000000
4811 2 109.7051679171 120.9078571429 52.7592000000
4812 1 110.8122607743 118.9903571429 51.8097000000
4813 2 106.3839947029 118.9903571429 48.6232000000
4814 1 110.8122607743 118.9903571429 49.5727000000
4815 2 113.0264464886 115.1553571429 52.7592000000
4816 1 114.1334339886 117.0728571429 51.8097000000
4817 2 116.3476197029 117.0728571429 52.7592000000
4818 1 117.4547125600 115.1553571429 51.8097000000
4819 2 113.0264464886 115.1553571429 48.6232000000
4820 1 114.1334339886 117.0728571429 49.5727000000
4821 2 116.3476197029 117.0728571429 48.6232000000
4822 1 117.4547125600 115.1553571429 49.5727000000
4823 2 113.0264464886 118.9903571429 52.7592000000
4824 1 114.1334339886 120.9078571429 51.8097000000
4825 2 116.3476197029 120.9078571429 52.7592000000
4826 1 117.4547125600 118.9903571429 51.8097000000
4827 2 113.0264464886 118.9903571429 48.6232000000
4828 1 114.1334339886 120.9078571429 49.5727000000
4829 2 116.3476197029 120.9078571429 48.6232000000
4830 1 117.4547125600 118.9903571429 49.5727000000
4831 2 119.6688243979 115.1553571429 52.7592000000
4832 1 120.7759172550 117.0728571429 51.8097000000
4833 2 122.9899976121 117.0728571429 52.7592000000
4834 1 124.0970904693 115.1553571429 51.8097000000
4835 2 119.6688243979 115.1553571429 48.6232000000
4836 1 120.7759172550 117.0728571429 49.5727000000
4837 2 122.9899976121 117.0728571429 48.6232000000
4838 1 124.0970904693 115.1553571429 49.5727000000
4839 2 119.6688243979 118.9903571429 52.7592000000
4840 1 120.7759172550 120.9078571429 51.8097000000
4841 2 122.9899976121 120.9078571429 52.7592000000
4842 1 124.0970904693 118.9903571429 51.8097000000
4843 2 119.6688243979 118.9903571429 48.6232000000
4844 1 120.7759172550 120.9078571429 49.5727000000
4845 2 122.9899976121 120.9078571429 48.6232000000
4846 1 124.0970904693 118.9903571429 49.5727000000
4847 2 126.3112761836 115.1553571429 52.7592000000
4848 1 127.4182636836 117.0728571429 51.8097000000
4849 2 129.6324493979 117.0728571429 52.7592000000
4850 1 130.7395422550 115.1553571429 51.8097000000
4851 2 126.3112761836 115.1553571429 48.6232000000
4852 1 127.4182636836 117.0728571429 49.5727000000
4853 2 129.6324493979 117.0728571429 48.6232000000
4854 1 130.7395422550 115.1553571429 49.5727000000
4855 2 126.3112761836 118.9903571429 52.7592000000
4856 1 127.4182636836 120.9078571429 51.8097000000
4857 2 129.6324493979 120.9078571429 52.7592000000
4858 1 130.7395422550 118.9903571429 51.8097000000
4859 2 126.3112761836 118.9903571429 48.6232000000
4860 1 127.4182636836 120.9078571429 49.5727000000
4861 2 129.6324493979 120.9078571429 48.6232000000
4862 1 130.7395422550 118.9903571429 49.5727000000
4863 2 0.1053571429 122.8253571429 52.7592000000
4864 1 1.2124500000 124.7428571429 51.8097000000
4865 2 3.4265303571 124.7428571429 52.7592000000
4866 1 4.5336232143 122.8253571429 51.8097000000
4867 2 0.1053571429 122.8253571429 48.6232000000
4868 1 1.2124500000 124.7428571429 49.5727000000
4869 2 3.4265303571 124.7428571429 48.6232000000
4870 1 4.5336232143 122.8253571429 49.5727000000
4871 2 0.1053571429 126.6603571429 52.7592000000
4872 1 4.5336232143 126.6603571429 51.8097000000
4873 2 0.1053571429 126.6603571429 48.6232000000
4874 1 1.2124500000 128.5778571429 49.5727000000
4875 2 3.4265303571 128.5778571429 48.6232000000
4876 1 4.5336232143 126.6603571429 49.5727000000
4877 2 6.7478089286 122.8253571429 52.7592000000
4878 1 7.8547964286 124.7428571429 51.8097000000
4879 2 10.0689821429 124.7428571429 52.7592000000
4880 1 11.1760750000 122.8253571429 51.8097000000
4881 2 6.7478089286 122.8253571429 48.6232000000
4882 1 7.8547964286 124.7428571429 49.5727000000
4883 2 10.0689821429 124.7428571429 48.6232000000
4884 1 11.1760750000 122.8253571429 49.5727000000
4885 2 6.7478089286 126.6603571429 52.7592000000
4886 1 7.8547964286 128.5778571429 51.8097000000
4887 2 10.0689821429 128.5778571429 52.7592000000
4888 1 11.1760750000 126.6603571429 51.8097000000
4889 2 6.7478089286 126.6603571429 48.6232000000
4890 1 7.8547964286 128.5778571429 49.5727000000
4891 2 10.0689821429 128.5778571429 48.6232000000
4892 1 11.1760750000 126.6603571429 49.5727000000
4893 2 13.3901868379 122.8253571429 52.7592000000
4894 1 14.4972796950 124.7428571429 51.8097000000
4895 2 16.7113600521 124.7428571429 52.7592000000
4896 1 17.8184529093 122.8253571429 51.8097000000
4897 2 13.3901868379 122.8253571429 48.6232000000
4898 1 14.4972796950 124.7428571429 49.5727000000
4899 2 16.7113600521 124.7428571429 48.6232000000
4900 1 17.8184529093 122.8253571429 49.5727000000
4901 2 13.3901868379 126.6603571429 52.7592000000
4902 1 14.4972796950 128.5778571429 51.8097000000
4903 2 16.7113600521 128.5778571429 52.7592000000
4904 1 17.8184529093 126.6603571429 51.8097000000
4905 2 13.3901868379 126.6603571429 48.6232000000
4906 1 14.4972796950 128.5778571429 49.5727000000
4907 2 16.7113600521 128.5778571429 48.6232000000
4908 1 17.8184529093 126.6603571429 49.5727000000
4909 2 20.0326386236 122.8253571429 52.7592000000
4910 1 21.1396261236 124.7428571429 51.8097000000
4911 2 23.3538118379 124.7428571429 52.7592000000
4912 1 24.4609046950 122.8253571429 51.8097000000
4913 2 20.0326386236 122.8253571429 48.6232000000
4914 1 21.1396261236 124.7428571429 49.5727000000
4915 2 23.3538118379 124.7428571429 48.6232000000
4916 1 24.4609046950 122.8253571429 49.5727000000
4917 2 20.0326386236 126.6603571429 52.7592000000
4918 1 21.1396261236 128.5778571429 51.8097000000
4919 2 23.3538118379 128.5778571429 52.7592000000
4920 2 20.0326386236 126.6603571429 48.6232000000
4921 1 21.1396261236 128.5778571429 49.5727000000
4922 2 23.3538118379 128.5778571429 48.6232000000
4923 1 24.4609046950 126.6603571429 49.5727000000
4924 2 26.6750165329 122.8253571429 52.7592000000
4925 1 27.7821093900 124.7428571429 51.8097000000
4926 2 29.9961897471 124.7428571429 52.7592000000
4927 1 31.1032826043 122.8253571429 51.8097000000
4928 2 26.6750165329 122.8253571429 48.6232000000
4929 1 27.7821093900 124.7428571429 49.5727000000
4930 2 29.9961897471 124.7428571429 48.6232000000
4931 1 31.1032826043 122.8253571429 49.5727000000
4932 1 27.7821093900 128.5778571429 51.8097000000
4933 2 29.9961897471 128.5778571429 52.7592000000
4934 1 31.1032826043 126.6603571429 51.8097000000
4935 2 26.6750165329 126.6603571429 48.6232000000
4936 1 27.7821093900 128.5778571429 49.5727000000
4937 2 29.9961897471 128.5778571429 48.6232000000
4938 1 31.1032826043 126.6603571429 49.5727000000
4939 2 33.3174683186 122.8253571429 52.7592000000
4940 1 34.4244558186 124.7428571429 51.8097000000
4941 2 36.6386415329 124.7428571429 52.7592000000
4942 1 37.7457343900 122.8253571429 51.8097000000
4943 2 33.3174683186 122.8253571429 48.6232000000
4944 1 34.4244558186 124.7428571429 49.5727000000
4945 2 36.6386415329 124.7428571429 48.6232000000
4946 1 37.7457343900 122.8253571429 49.5727000000
4947 2 33.3174683186 126.6603571429 52.7592000000
4948 1 34.4244558186 128.5778571429 51.8097000000
4949 2 36.6386415329 128.5778571429 52.7592000000
4950 1 37.7457343900 126.6603571429 51.8097000000
4951 2 33.3174683186 126.6603571429 48.6232000000
4952 1 34.4244558186 128.5778571429 49.5727000000
4953 2 36.6386415329 128.5778571429 48.6232000000
4954 1 37.7457343900 126.6603571429 49.5727000000
4955 2 39.9598462279 122.8253571429 52.7592000000
4956 1 41.0669390850 124.7428571429 51.8097000000
4957 2 43.2810194421 124.7428571429 52.7592000000
4958 1 44.3881122993 122.8253571429 51.8097000000
4959 2 39.9598462279 122.8253571429 48.6232000000
4960 1 41.0669390850 124.7428571429 49.5727000000
4961 2 43.2810194421 124.7428571429 48.6232000000
4962 1 44.3881122993 122.8253571429 49.5727000000
4963 2 39.9598462279 126.6603571429 52.7592000000
4964 1 41.0669390850 128.5778571429 51.8097000000
4965 2 43.2810194421 128.5778571429 52.7592000000
4966 1 44.3881122993 126.6603571429 51.8097000000
4967 2 39.9598462279 126.6603571429 48.6232000000
4968 1 41.0669390850 128.5778571429 49.5727000000
4969 2 43.2810194421 128.5778571429 48.6232000000
4970 1 44.3881122993 126.6603571429 49.5727000000
4971 2 46.6022980136 122.8253571429 52.7592000000
4972 1 47.7092855136 124.7428571429 51.8097000000
4973 2 49.9234712279 124.7428571429 52.7592000000
4974 1 51.0305640850 122.8253571429 51.8097000000
4975 2 46.6022980136 122.8253571429 48.6232000000
4976 1 47.7092855136 124.7428571429 49.5727000000
4977 2 49.9234712279 124.7428571429 48.6232000000
4978 1 51.0305640850 122.8253571429 49.5727000000
4979 2 46.6022980136 126.6603571429 52.7592000000
4980 1 47.7092855136 128.5778571429 51.8097000000
4981 2 49.9234712279 128.5778571429 52.7592000000
4982 1 51.0305640850 126.6603571429 51.8097000000
4983 2 46.6022980136 126.6603571429 48.6232000000
4984 1 47.7092855136 128.5778571429 49.5727000000
4985 2 49.9234712279 128.5778571429 48.6232000000
4986 1 51.0305640850 126.6603571429 49.5727000000
4987 2 53.2446759229 122.8253571429 52.7592000000
4988 1 54.3517687800 124.7428571429 51.8097000000
4989 2 56.5658491371 124.7428571429 52.7592000000
4990 1 57.6729419943 122.8253571429 51.8097000000
4991 2 53.2446759229 122.8253571429 48.6232000000
4992 1 54.3517687800 124.7428571429 49.5727000000
4993 2 53.2446759229 126.6603571429 52.7592000000
4994 1 54.3517687800 128.5778571429 51.8097000000
4995 2 56.5658491371 128.5778571429 52.7592000000
4996 1 57.6729419943 126.6603571429 51.8097000000
4997 2 53.2446759229 126.6603571429 48.6232000000
4998 1 54.3517687800 128.5778571429 49.5727000000
4999 2 56.5658491371 128.5778571429 48.6232000000
5000 1 57.6729419943 126.6603571429 49.5727000000
5001 2 59.8871277086 122.8253571429 52.7592000000
5002 1 60.9941152086 124.7428571429 51.8097000000
5003 2 63.2083009229 124.7428571429 52.7592000000
5004 1 64.3153937800 122.8253571429 51.8097000000
5005 2 59.8871277086 122.8253571429 48.6232000000
5006 1 60.9941152086 124.7428571429 49.5727000000
5007 2 63.2083009229 124.7428571429 48.6232000000
5008 1 64.3153937800 122.8253571429 49.5727000000
5009 2 59.8871277086 126.6603571429 52.7592000000
5010 1 60.9941152086 128.5778571429 51.8097000000
5011 2 63.2083009229 128.5778571429 52.7592000000
5012 1 64.3153937800 126.6603571429 51.8097000000
5013 2 59.8871277086 126.6603571429 48.6232000000
5014 1 60.9941152086 128.5778571429 49.5727000000
5015 2 63.2083009229 128.5778571429 48.6232000000
5016 1 64.3153937800 126.6603571429 49.5727000000
5017 2 66.5295056179 122.8253571429 52.7592000000
5018 1 67.6365984750 124.7428571429 51.8097000000
5019 2 69.8506788321 124.7428571429 52.7592000000
5020 1 70.9577716893 122.8253571429 51.8097000000
5021 2 66.5295056179 122.8253571429 48.6232000000
5022 1 67.6365984750 124.7428571429 49.5727000000
5023 2 69.8506788321 124.7428571429 48.6232000000
5024 1 70.9577716893 122.8253571429 49.5727000000
5025 2 66.5295056179 126.6603571429 52.7592000000
5026 1 67.6365984750 128.5778571429 51.8097000000
5027 2 69.8506788321 128.5778571429 52.7592000000
5028 1 70.9577716893 126.6603571429 51.8097000000
5029 2 66.5295056179 126.6603571429 48.6232000000
5030 1 67.6365984750 128.5778571429 49.5727000000
5031 2 69.8506788321 128.5778571429 48.6232000000
5032 1 70.9577716893 126.6603571429 49.5727000000
5033 2 73.1719574036 122.8253571429 52.7592000000
5034 1 74.2789449036 124.7428571429 51.8097000000
5035 2 76.4931306179 124.7428571429 52.7592000000
5036 1 77.6002234750 122.8253571429 51.8097000000
5037 2 73.1719574036 122.8253571429 48.6232000000
5038 1 74.2789449036 124.7428571429 49.5727000000
5039 2 76.4931306179 124.7428571429 48.6232000000
5040 1 77.6002234750 122.8253571429 49.5727000000
5041 2 73.1719574036 126.6603571429 52.7592000000
5042 1 74.2789449036 128.5778571429 51.8097000000
5043 2 76.4931306179 128.5778571429 52.7592000000
5044 2 73.1719574036 126.6603571429 48.6232000000
5045 1 74.2789449036 128.5778571429 49.5727000000
5046 2 76.4931306179 128.5778571429 48.6232000000
5047 1 77.6002234750 126.6603571429 49.5727000000
5048 2 79.8143353129 122.8253571429 52.7592000000
5049 1 80.9214281700 124.7428571429 51.8097000000
5050 2 83.1355085271 124.7428571429 52.7592000000
5051 1 84.2426013843 122.8253571429 51.8097000000
5052 2 79.8143353129 122.8253571429 48.6232000000
5053 1 80.9214281700 124.7428571429 49.5727000000
5054 2 83.1355085271 124.7428571429 48.6232000000
5055 1 84.2426013843 122.8253571429 49.5727000000
5056 1 80.9214281700 128.5778571429 51.8097000000
5057 2 83.1355085271 128.5778571429 52.7592000000
5058 1 84.2426013843 126.6603571429 51.8097000000
5059 2 79.8143353129 126.6603571429 48.6232000000
5060 1 80.9214281700 128.5778571429 49.5727000000
5061 2 83.1355085271 128.5778571429 48.6232000000
5062 1 84.2426013843 126.6603571429 49.5727000000
5063 2 86.4567870986 122.8253571429 52.7592000000
5064 1 87.5637745986 124.7428571429 51.8097000000
5065 2 89.7779603129 124.7428571429 52.7592000000
5066 2 86.4567870986 122.8253571429 48.6232000000
5067 1 87.5637745986 124.7428571429 49.5727000000
5068 2 89.7779603129 124.7428571429 48.6232000000
5069 1 90.8850531700 122.8253571429 49.5727000000
5070 2 86.4567870986 126.6603571429 52.7592000000
5071 1 87.5637745986 128.5778571429 51.8097000000
5072 2 89.7779603129 128.5778571429 52.7592000000
5073 1 90.8850531700 126.6603571429 51.8097000000
5074 2 86.4567870986 126.6603571429 48.6232000000
5075 2 89.7779603129 128.5778571429 48.6232000000
5076 1 90.8850531700 126.6603571429 49.5727000000
5077 1 94.2062578650 124.7428571429 51.8097000000
5078 2 96.4203382221 124.7428571429 52.7592000000
5079 1 97.5274310793 122.8253571429 51.8097000000
5080 2 93.0991650079 122.8253571429 48.6232000000
5081 1 94.2062578650 124.7428571429 49.5727000000
5082 2 96.4203382221 124.7428571429 48.6232000000
5083 1 97.5274310793 122.8253571429 49.5727000000
5084 2 93.0991650079 126.6603571429 52.7592000000
5085 1 94.2062578650 128.5778571429 51.8097000000
5086 2 96.4203382221 128.5778571429 52.7592000000
5087 1 97.5274310793 126.6603571429 51.8097000000
5088 2 93.0991650079 126.6603571429 48.6232000000
5089 1 94.2062578650 128.5778571429 49.5727000000
5090 2 96.4203382221 128.5778571429 48.6232000000
5091 1 97.5274310793 126.6603571429 49.5727000000
5092 2 99.7416167936 122.8253571429 52.7592000000
5093 1 100.8486042936 124.7428571429 51.8097000000
5094 2 103.0627900079 124.7428571429 52.7592000000
5095 1 104.1698828650 122.8253571429 51.8097000000
5096 2 99.7416167936 122.8253571429 48.6232000000
5097 1 100.8486042936 124.7428571429 49.5727000000
5098 2 103.0627900079 124.7428571429 48.6232000000
5099 1 104.1698828650 122.8253571429 49.5727000000
5100 2 99.7416167936 126.6603571429 52.7592000000
5101 1 100.8486042936 128.5778571429 51.8097000000
5102 2 103.0627900079 128.5778571429 52.7592000000
5103 1 104.1698828650 126.6603571429 51.8097000000
5104 2 99.7416167936 126.6603571429 48.6232000000
5105 1 100.8486042936 128.5778571429 49.5727000000
5106 2 103.0627900079 128.5778571429 48.6232000000
5107 1 104.1698828650 126.6603571429 49.5727000000
5108 2 106.3839947029 122.8253571429 52.7592000000
5109 1 107.4910875600 124.7428571429 51.8097000000
5110 2 109.7051679171 124.7428571429 52.7592000000
5111 1 110.8122607743 122.8253571429 51.8097000000
5112 2 106.3839947029 122.8253571429 48.6232000000
5113 1 107.4910875600 124.7428571429 49.5727000000
5114 2 109.7051679171 124.7428571429 48.6232000000
5115 1 110.8122607743 122.8253571429 49.5727000000
5116 2 106.3839947029 126.6603571429 52.7592000000
5117 1 107.4910875600 128.5778571429 51.8097000000
5118 2 109.7051679171 128.5778571429 52.7592000000
5119 1 110.8122607743 126.6603571429 51.8097000000
5120 2 106.3839947029 126.6603571429 48.6232000000
5121 1 107.4910875600 128.5778571429 49.5727000000
5122 2 109.7051679171 128.5778571429 48.6232000000
5123 1 110.8122607743 126.6603571429 49.5727000000
5124 2 113.0264464886 122.8253571429 52.7592000000
5125 1 114.1334339886 124.7428571429 51.8097000000
5126 2 116.3476197029 124.7428571429 52.7592000000
5127 1 117.4547125600 122.8253571429 51.8097000000
5128 2 113.0264464886 122.8253571429 48.6232000000
5129 1 114.1334339886 124.7428571429 49.5727000000
5130 2 116.3476197029 124.7428571429 48.6232000000
5131 1 117.4547125600 122.8253571429 49.5727000000
5132 2 113.0264464886 126.6603571429 52.7592000000
5133 1 114.1334339886 128.5778571429 51.8097000000
5134 2 116.3476197029 128.5778571429 52.7592000000
5135 1 117.4547125600 126.6603571429 51.8097000000
5136 2 113.0264464886 126.6603571429 48.6232000000
5137 1 114.1334339886 128.5778571429 49.5727000000
5138 2 116.3476197029 128.5778571429 48.6232000000
5139 1 117.4547125600 126.6603571429 49.5727000000
5140 2 119.6688243979 122.8253571429 52.7592000000
5141 1 120.7759172550 124.7428571429 51.8097000000
5142 2 122.9899976121 124.7428571429 52.7592000000
5143 1 124.0970904693 122.8253571429 51.8097000000
5144 2 119.6688243979 122.8253571429 48.6232000000
5145 1 120.7759172550 124.7428571429 49.5727000000
5146 1 124.0970904693 122.8253571429 49.5727000000
5147 2 119.6688243979 126.6603571429 52.7592000000
5148 1 120.7759172550 128.5778571429 51.8097000000
5149 2 122.9899976121 128.5778571429 52.7592000000
5150 1 124.0970904693 126.6603571429 51.8097000000
5151 2 119.6688243979 126.6603571429 48.6232000000
5152 1 120.7759172550 128.5778571429 49.5727000000
5153 2 122.9899976121 128.5778571429 48.6232000000
5154 2 126.3112761836 122.8253571429 52.7592000000
5155 1 127.4182636836 124.7428571429 51.8097000000
5156 2 129.6324493979 124.7428571429 52.7592000000
5157 1 130.7395422550 122.8253571429 51.8097000000
5158 2 126.3112761836 122.8253571429 48.6232000000
5159 1 127.4182636836 124.7428571429 49.5727000000
5160 2 129.6324493979 124.7428571429 48.6232000000
5161 1 130.7395422550 122.8253571429 49.5727000000
5162 2 126.3112761836 126.6603571429 52.7592000000
5163 1 127.4182636836 128.5778571429 51.8097000000
5164 2 129.6324493979 128.5778571429 52.7592000000
5165 1 130.7395422550 126.6603571429 51.8097000000
5166 2 126.3112761836 126.6603571429 48.6232000000
5167 1 127.4182636836 128.5778571429 49.5727000000
5168 2 129.6324493979 128.5778571429 48.6232000000
5169 1 130.7395422550 126.6603571429 49.5727000000
5170 2 0.1053571429 130.4953571429 52.7592000000
5171 1 1.2124500000 132.4128571429 51.8097000000
5172 2 3.4265303571 132.4128571429 52.7592000000
5173 1 4.5336232143 130.4953571429 51.8097000000
5174 2 0.1053571429 130.4953571429 48.6232000000
5175 1 1.2124500000 132.4128571429 49.5727000000
5176 2 3.4265303571 132.4128571429 48.6232000000
5177 1 4.5336232143 130.4953571429 49.5727000000
5178 2 0.1053571429 134.3303571429 52.7592000000
5179 1 1.2124500000 136.2478571429 51.8097000000
5180 2 3.4265303571 136.2478571429 52.7592000000
5181 1 4.5336232143 134.3303571429 51.8097000000
5182 2 0.1053571429 134.3303571429 48.6232000000
5183 1 1.2124500000 136.2478571429 49.5727000000
5184 2 3.4265303571 136.2478571429 48.6232000000
5185 1 4.5336232143 134.3303571429 49.5727000000
5186 2 6.7478089286 130.4953571429 52.7592000000
5187 1 7.8547964286 132.4128571429 51.8097000000
5188 2 10.0689821429 132.4128571429 52.7592000000
5189 2 6.7478089286 130.4953571429 48.6232000000
5190 1 7.8547964286 132.4128571429 49.5727000000
5191 2 10.0689821429 132.4128571429 48.6232000000
5192 1 11.1760750000 130.4953571429 49.5727000000
5193 2 6.7478089286 134.3303571429 52.7592000000
5194 1 7.8547964286 136.2478571429 51.8097000000
5195 2 10.0689821429 136.2478571429 52.7592000000
5196 1 11.1760750000 134.3303571429 51.8097000000
5197 2 6.7478089286 134.3303571429 48.6232000000
5198 1 7.8547964286 136.2478571429 49.5727000000
5199 2 10.0689821429 136.2478571429 48.6232000000
5200 1 11.1760750000 134.3303571429 49.5727000000
5201 1 14.4972796950 132.4128571429 51.8097000000
5202 2 16.7113600521 132.4128571429 52.7592000000
5203 1 17.8184529093 130.4953571429 51.8097000000
5204 2 13.3901868379 130.4953571429 48.6232000000
5205 1 14.4972796950 132.4128571429 49.5727000000
5206 2 16.7113600521 132.4128571429 48.6232000000
5207 1 17.8184529093 130.4953571429 49.5727000000
5208 2 13.3901868379 134.3303571429 52.7592000000
5209 1 14.4972796950 136.2478571429 51.8097000000
5210 2 16.7113600521 136.2478571429 52.7592000000
5211 1 17.8184529093 134.3303571429 51.8097000000
5212 2 13.3901868379 134.3303571429 48.6232000000
5213 1 14.4972796950 136.2478571429 49.5727000000
5214 2 16.7113600521 136.2478571429 48.6232000000
5215 1 17.8184529093 134.3303571429 49.5727000000
5216 2 20.0326386236 130.4953571429 52.7592000000
5217 1 21.1396261236 132.4128571429 51.8097000000
5218 2 23.3538118379 132.4128571429 52.7592000000
5219 1 24.4609046950 130.4953571429 51.8097000000
5220 2 20.0326386236 130.4953571429 48.6232000000
5221 1 21.1396261236 132.4128571429 49.5727000000
5222 2 23.3538118379 132.4128571429 48.6232000000
5223 1 24.4609046950 130.4953571429 49.5727000000
5224 2 20.0326386236 134.3303571429 52.7592000000
5225 1 21.1396261236 136.2478571429 51.8097000000
5226 2 23.3538118379 136.2478571429 52.7592000000
5227 1 24.4609046950 134.3303571429 51.8097000000
5228 2 20.0326386236 134.3303571429 48.6232000000
5229 1 21.1396261236 136.2478571429 49.5727000000
5230 2 23.3538118379 136.2478571429 48.6232000000
5231 1 24.4609046950 134.3303571429 49.5727000000
5232 2 26.6750165329 130.4953571429 52.7592000000
5233 1 27.7821093900 132.4128571429 51.8097000000
5234 2 29.9961897471 132.4128571429 52.7592000000
5235 1 31.1032826043 130.4953571429 51.8097000000
5236 2 26.6750165329 130.4953571429 48.6232000000
5237 1 27.7821093900 132.4128571429 49.5727000000
5238 2 29.9961897471 132.4128571429 48.6232000000
5239 1 31.1032826043 130.4953571429 49.5727000000
5240 2 26.6750165329 134.3303571429 52.7592000000
5241 1 27.7821093900 136.2478571429 51.8097000000
5242 2 29.9961897471 136.2478571429 52.7592000000
5243 1 31.1032826043 134.3303571429 51.8097000000
5244 2 26.6750165329 134.3303571429 48.6232000000
5245 1 27.7821093900 136.2478571429 49.5727000000
5246 2 29.9961897471 136.2478571429 48.6232000000
5247 1 31.1032826043 134.3303571429 49.5727000000
5248 2 33.3174683186 130.4953571429 52.7592000000
5249 1 34.4244558186 132.4128571429 51.8097000000
5250 2 36.6386415329 132.4128571429 52.7592000000
5251 1 37.7457343900 130.4953571429 51.8097000000
5252 2 33.3174683186 130.4953571429 48.6232000000
5253 1 34.4244558186 132.4128571429 49.5727000000
5254 2 36.6386415329 132.4128571429 48.6232000000
5255 1 37.7457343900 130.4953571429 49.5727000000
5256 2 33.3174683186 134.3303571429 52.7592000000
5257 1 34.4244558186 136.2478571429 51.8097000000
5258 2 36.6386415329 136.2478571429 52.7592000000
5259 1 37.7457343900 134.3303571429 51.8097000000
5260 2 36.6386415329 136.2478571429 48.6232000000
5261 1 37.7457343900 134.3303571429 49.5727000000
5262 2 39.9598462279 130.4953571429 52.7592000000
5263 1 44.3881122993 130.4953571429 51.8097000000
5264 2 39.9598462279 130.4953571429 48.6232000000
5265 1 41.0669390850 132.4128571429 49.5727000000
5266 2 43.2810194421 132.4128571429 48.6232000000
5267 1 44.3881122993 130.4953571429 49.5727000000
5268 2 39.9598462279 134.3303571429 52.7592000000
5269 1 41.0669390850 136.2478571429 51.8097000000
5270 2 43.2810194421 136.2478571429 52.7592000000
5271 1 44.3881122993 134.3303571429 51.8097000000
5272 2 39.9598462279 134.3303571429 48.6232000000
5273 1 41.0669390850 136.2478571429 49.5727000000
5274 2 43.2810194421 136.2478571429 48.6232000000
5275 1 44.3881122993 134.3303571429 49.5727000000
5276 2 46.6022980136 130.4953571429 52.7592000000
5277 1 47.7092855136 132.4128571429 51.8097000000
5278 2 49.9234712279 132.4128571429 52.7592000000
5279 1 51.0305640850 130.4953571429 51.8097000000
5280 2 46.6022980136 130.4953571429 48.6232000000
5281 1 47.7092855136 132.4128571429 49.5727000000
5282 2 49.9234712279 132.4128571429 48.6232000000
5283 1 51.0305640850 130.4953571429 49.5727000000
5284 2 46.6022980136 134.3303571429 52.7592000000
5285 1 47.7092855136 136.2478571429 51.8097000000
5286 2 49.9234712279 136.2478571429 52.7592000000
5287 2 46.6022980136 134.3303571429 48.6232000000
5288 1 47.7092855136 136.2478571429 49.5727000000
5289 2 49.9234712279 136.2478571429 48.6232000000
5290 1 51.0305640850 134.3303571429 49.5727000000
5291 2 53.2446759229 130.4953571429 52.7592000000
5292 1 54.3517687800 132.4128571429 51.8097000000
5293 2 56.5658491371 132.4128571429 52.7592000000
5294 1 57.6729419943 130.4953571429 51.8097000000
5295 2 53.2446759229 130.4953571429 48.6232000000
5296 1 54.3517687800 132.4128571429 49.5727000000
5297 2 56.5658491371 132.4128571429 48.6232000000
5298 1 57.6729419943 130.4953571429 49.5727000000
5299 1 54.3517687800 136.2478571429 51.8097000000
5300 2 56.5658491371 136.2478571429 52.7592000000
5301 1 57.6729419943 134.3303571429 51.8097000000
5302 2 53.2446759229 134.3303571429 48.6232000000
5303 1 54.3517687800 136.2478571429 49.5727000000
5304 2 56.5658491371 136.2478571429 48.6232000000
5305 1 57.6729419943 134.3303571429 49.5727000000
5306 2 59.8871277086 130.4953571429 52.7592000000
5307 1 60.9941152086 132.4128571429 51.8097000000
5308 2 63.2083009229 132.4128571429 52.7592000000
5309 1 64.3153937800 130.4953571429 51.8097000000
5310 2 59.8871277086 130.4953571429 48.6232000000
5311 1 60.9941152086 132.4128571429 49.5727000000
5312 2 63.2083009229 132.4128571429 48.6232000000
5313 1 64.3153937800 130.4953571429 49.5727000000
5314 2 59.8871277086 134.3303571429 52.7592000000
5315 1 60.9941152086 136.2478571429 51.8097000000
5316 2 63.2083009229 136.2478571429 52.7592000000
5317 1 64.3153937800 134.3303571429 51.8097000000
5318 2 63.2083009229 136.2478571429 48.6232000000
5319 1 64.3153937800 134.3303571429 49.5727000000
5320 2 66.5295056179 130.4953571429 52.7592000000
5321 1 67.6365984750 132.4128571429 51.8097000000
5322 1 70.9577716893 130.4953571429 51.8097000000
5323 2 66.5295056179 130.4953571429 48.6232000000
5324 1 67.6365984750 132.4128571429 49.5727000000
5325 2 69.8506788321 132.4128571429 48.6232000000
5326 1 70.9577716893 130.4953571429 49.5727000000
5327 2 66.5295056179 134.3303571429 52.7592000000
5328 1 67.6365984750 136.2478571429 51.8097000000
5329 2 69.8506788321 136.2478571429 52.7592000000
5330 2 66.5295056179 134.3303571429 48.6232000000
5331 1 67.6365984750 136.2478571429 49.5727000000
5332 2 69.8506788321 136.2478571429 48.6232000000
5333 1 70.9577716893 134.3303571429 49.5727000000
5334 2 73.1719574036 130.4953571429 52.7592000000
5335 1 74.2789449036 132.4128571429 51.8097000000
5336 2 76.4931306179 132.4128571429 52.7592000000
5337 1 77.6002234750 130.4953571429 51.8097000000
5338 2 73.1719574036 130.4953571429 48.6232000000
5339 1 74.2789449036 132.4128571429 49.5727000000
5340 2 76.4931306179 132.4128571429 48.6232000000
5341 1 77.6002234750 130.4953571429 49.5727000000
5342 2 73.1719574036 134.3303571429 52.7592000000
5343 1 74.2789449036 136.2478571429 51.8097000000
5344 2 76.4931306179 136.2478571429 52.7592000000
5345 1 77.6002234750 134.3303571429 51.8097000000
5346 2 73.1719574036 134.3303571429 48.6232000000
5347 1 74.2789449036 136.2478571429 49.5727000000
5348 2 76.4931306179 136.2478571429 48.6232000000
5349 1 77.6002234750 134.3303571429 49.5727000000
5350 2 79.8143353129 130.4953571429 52.7592000000
5351 1 80.9214281700 132.4128571429 51.8097000000
5352 2 83.1355085271 132.4128571429 52.7592000000
5353 1 84.2426013843 130.4953571429 51.8097000000
5354 2 79.8143353129 130.4953571429 48.6232000000
5355 1 80.9214281700 132.4128571429 49.5727000000
5356 2 83.1355085271 132.4128571429 48.6232000000
5357 1 84.2426013843 130.4953571429 49.5727000000
5358 2 79.8143353129 134.3303571429 52.7592000000
5359 1 80.9214281700 136.2478571429 51.8097000000
5360 2 83.1355085271 136.2478571429 52.7592000000
5361 1 84.2426013843 134.3303571429 51.8097000000
5362 2 79.8143353129 134.3303571429 48.6232000000
5363 1 80.9214281700 136.2478571429 49.5727000000
5364 2 83.1355085271 136.2478571429 48.6232000000
5365 1 84.2426013843 134.3303571429 49.5727000000
5366 2 86.4567870986 130.4953571429 52.7592000000
5367 1 87.5637745986 132.4128571429 51.8097000000
5368 2 89.7779603129 132.4128571429 52.7592000000
5369 1 90.8850531700 130.4953571429 51.8097000000
5370 1 87.5637745986 132.4128571429 49.5727000000
5371 2 89.7779603129 132.4128571429 48.6232000000
5372 1 90.8850531700 130.4953571429 49.5727000000
5373 2 86.4567870986 134.3303571429 52.7592000000
5374 1 87.5637745986 136.2478571429 51.8097000000
5375 2 89.7779603129 136.2478571429 52.7592000000
5376 1 90.8850531700 134.3303571429 51.8097000000
5377 2 86.4567870986 134.3303571429 48.6232000000
5378 1 87.5637745986 136.2478571429 49.5727000000
5379 2 89.7779603129 136.2478571429 48.6232000000
5380 1 90.8850531700 134.3303571429 49.5727000000
5381 2 93.0991650079 130.4953571429 52.7592000000
5382 1 94.2062578650 132.4128571429 51.8097000000
5383 2 96.4203382221 132.4128571429 52.7592000000
5384 1 97.5274310793 130.4953571429 51.8097000000
5385 2 93.0991650079 130.4953571429 48.6232000000
5386 1 94.2062578650 132.4128571429 49.5727000000
5387 2 96.4203382221 132.4128571429 48.6232000000
5388 1 97.5274310793 130.4953571429 49.5727000000
5389 2 93.0991650079 134.3303571429 52.7592000000
5390 1 94.2062578650 136.2478571429 51.8097000000
5391 2 96.4203382221 136.2478571429 52.7592000000
5392 1 97.5274310793 134.3303571429 51.8097000000
5393 2 93.0991650079 134.3303571429 48.6232000000
5394 1 94.2062578650 136.2478571429 49.5727000000
5395 2 96.4203382221 136.2478571429 48.6232000000
5396 1 97.5274310793 134.3303571429 49.5727000000
5397 2 99.7416167936 130.4953571429 52.7592000000
5398 1 100.8486042936 132.4128571429 51.8097000000
5399 2 103.0627900079 132.4128571429 52.7592000000
5400 1 104.1698828650 130.4953571429 51.8097000000
5401 2 99.7416167936 130.4953571429 48.6232000000
5402 1 100.8486042936 132.4128571429 49.5727000000
5403 2 103.0627900079 132.4128571429 48.6232000000
5404 2 99.7416167936 134.3303571429 52.7592000000
5405 1 100.8486042936 136.2478571429 51.8097000000
5406 2 103.0627900079 136.2478571429 52.7592000000
5407 1 104.1698828650 134.3303571429 51.8097000000
5408 2 99.7416167936 134.3303571429 48.6232000000
5409 1 100.8486042936 136.2478571429 49.5727000000
5410 2 103.0627900079 136.2478571429 48.6232000000
5411 1 104.1698828650 134.3303571429 49.5727000000
5412 2 106.3839947029 130.4953571429 52.7592000000
5413 1 107.4910875600 132.4128571429 51.8097000000
5414 2 109.7051679171 132.4128571429 52.7592000000
5415 1 110.8122607743 130.4953571429 51.8097000000
5416 1 107.4910875600 132.4128571429 49.5727000000
5417 2 109.7051679171 132.4128571429 48.6232000000
5418 1 110.8122607743 130.4953571429 49.5727000000
5419 2 106.3839947029 134.3303571429 52.7592000000
5420 1 107.4910875600 136.2478571429 51.8097000000
5421 2 109.7051679171 136.2478571429 52.7592000000
5422 1 110.8122607743 134.3303571429 51.8097000000
5423 2 106.3839947029 134.3303571429 48.6232000000
5424 1 107.4910875600 136.2478571429 49.5727000000
5425 2 109.7051679171 136.2478571429 48.6232000000
5426 1 110.8122607743 134.3303571429 49.5727000000
5427 2 113.0264464886 130.4953571429 52.7592000000
5428 1 114.1334339886 132.4128571429 51.8097000000
5429 2 116.3476197029 132.4128571429 52.7592000000
5430 1 117.4547125600 130.4953571429 51.8097000000
5431 2 113.0264464886 130.4953571429 48.6232000000
5432 1 114.1334339886 132.4128571429 49.5727000000
5433 2 116.3476197029 132.4128571429 48.6232000000
5434 1 117.4547125600 130.4953571429 49.5727000000
5435 2 113.0264464886 134.3303571429 52.7592000000
5436 1 114.1334339886 136.2478571429 51.8097000000
5437 2 116.3476197029 136.2478571429 52.7592000000
5438 1 117.4547125600 134.3303571429 51.8097000000
5439 2 113.0264464886 134.3303571429 48.6232000000
5440 1 114.1334339886 136.2478571429 49.5727000000
5441 2 116.3476197029 136.2478571429 48.6232000000
5442 1 117.4547125600 134.3303571429 49.5727000000
5443 2 119.6688243979 130.4953571429 52.7592000000
5444 1 120.7759172550 132.4128571429 51.8097000000
5445 2 122.9899976121 132.4128571429 52.7592000000
5446 1 124.0970904693 130.4953571429 51.8097000000
5447 2 119.6688243979 130.4953571429 48.6232000000
5448 1 120.7759172550 132.4128571429 49.5727000000
5449 2 122.9899976121 132.4128571429 48.6232000000
5450 1 124.0970904693 130.4953571429 49.5727000000
5451 2 119.6688243979 134.3303571429 52.7592000000
5452 1 120.7759172550 136.2478571429 51.8097000000
5453 2 122.9899976121 136.2478571429 52.7592000000
5454 1 124.0970904693 134.3303571429 51.8097000000
5455 2 119.6688243979 134.3303571429 48.6232000000
5456 1 120.7759172550 136.2478571429 49.5727000000
5457 2 122.9899976121 136.2478571429 48.6232000000
5458 1 124.0970904693 134.3303571429 49.5727000000
5459 2 126.3112761836 130.4953571429 52.7592000000
5460 1 127.4182636836 132.4128571429 51.8097000000
5461 2 129.6324493979 132.4128571429 52.7592000000
5462 1 130.7395422550 130.4953571429 51.8097000000
5463 2 126.3112761836 130.4953571429 48.6232000000
5464 2 129.6324493979 132.4128571429 48.6232000000
5465 1 130.7395422550 130.4953571429 49.5727000000
5466 2 126.3112761836 134.3303571429 52.7592000000
5467 1 127.4182636836 136.2478571429 51.8097000000
5468 2 129.6324493979 136.2478571429 52.7592000000
5469 1 130.7395422550 134.3303571429 51.8097000000
5470 1 127.4182636836 136.2478571429 49.5727000000
5471 2 129.6324493979 136.2478571429 48.6232000000
5472 1 130.7395422550 134.3303571429 49.5727000000
