# GaS D1 (chalcogen monovacancy): 288 atoms removed = 5.0000% of total | seed 101 | d_min 6.50 A | 50/50 deck split enforced | minimize + NVT-equilibrate before the NVE velocity dump
# generated by make_vdos_structures.py v2 on 2026-07-21 07:46

5472 atoms
2 atom types

0.0000000000 132.8482969500 xlo xhi
0.0000000000 138.0600000000 ylo yhi
0.0000000000 106.0000000000 zlo zhi

Masses

1 69.7230
2 32.0600

Atoms # atomic

1 2 0.1053571429 0.1053571429 52.7592000000
2 1 1.2124500000 2.0228571429 51.8097000000
3 2 3.4265303571 2.0228571429 52.7592000000
4 1 4.5336232143 0.1053571429 51.8097000000
5 1 1.2124500000 2.0228571429 49.5727000000
6 2 3.4265303571 2.0228571429 48.6232000000
7 1 4.5336232143 0.1053571429 49.5727000000
8 2 0.1053571429 3.9403571429 52.7592000000
9 1 1.2124500000 5.8578571429 51.8097000000
10 2 3.4265303571 5.8578571429 52.7592000000
11 1 4.5336232143 3.9403571429 51.8097000000
12 2 0.1053571429 3.9403571429 48.6232000000
13 1 1.2124500000 5.8578571429 49.5727000000
14 2 3.4265303571 5.8578571429 48.6232000000
15 1 4.5336232143 3.9403571429 49.5727000000
16 2 6.7478089286 0.1053571429 52.7592000000
17 1 7.8547964286 2.0228571429 51.8097000000
18 2 10.0689821429 2.0228571429 52.7592000000
19 1 11.1760750000 0.1053571429 51.8097000000
20 2 6.7478089286 0.1053571429 48.6232000000
21 1 7.8547964286 2.0228571429 49.5727000000
22 2 10.0689821429 2.0228571429 48.6232000000
23 1 11.1760750000 0.1053571429 49.5727000000
24 2 6.7478089286 3.9403571429 52.7592000000
25 1 7.8547964286 5.8578571429 51.8097000000
26 1 11.1760750000 3.9403571429 51.8097000000
27 2 6.7478089286 3.9403571429 48.6232000000
28 1 7.8547964286 5.8578571429 49.5727000000
29 2 10.0689821429 5.8578571429 48.6232000000
30 1 11.1760750000 3.9403571429 49.5727000000
31 2 13.3901868379 0.1053571429 52.7592000000
32 1 14.4972796950 2.0228571429 51.8097000000
33 2 16.7113600521 2.0228571429 52.7592000000
34 1 17.8184529093 0.1053571429 51.8097000000
35 2 13.3901868379 0.1053571429 48.6232000000
36 1 14.4972796950 2.0228571429 49.5727000000
37 2 16.7113600521 2.0228571429 48.6232000000
38 1 17.8184529093 0.1053571429 49.5727000000
39 2 13.3901868379 3.9403571429 52.7592000000
40 1 14.4972796950 5.8578571429 51.8097000000
41 2 16.7113600521 5.8578571429 52.7592000000
42 1 17.8184529093 3.9403571429 51.8097000000
43 2 13.3901868379 3.9403571429 48.6232000000
44 1 14.4972796950 5.8578571429 49.5727000000
45 1 17.8184529093 3.9403571429 49.5727000000
46 2 20.0326386236 0.1053571429 52.7592000000
47 1 21.1396261236 2.0228571429 51.8097000000
48 1 24.4609046950 0.1053571429 51.8097000000
49 2 20.0326386236 0.1053571429 48.6232000000
50 1 21.1396261236 2.0228571429 49.5727000000
51 2 23.3538118379 2.0228571429 48.6232000000
52 1 24.4609046950 0.1053571429 49.5727000000
53 2 20.0326386236 3.9403571429 52.7592000000
54 1 21.1396261236 5.8578571429 51.8097000000
55 2 23.3538118379 5.8578571429 52.7592000000
56 1 24.4609046950 3.9403571429 51.8097000000
57 2 20.0326386236 3.9403571429 48.6232000000
58 1 21.1396261236 5.8578571429 49.5727000000
59 2 23.3538118379 5.8578571429 48.6232000000
60 1 24.4609046950 3.9403571429 49.5727000000
61 2 26.6750165329 0.1053571429 52.7592000000
62 1 27.7821093900 2.0228571429 51.8097000000
63 1 31.1032826043 0.1053571429 51.8097000000
64 2 26.6750165329 0.1053571429 48.6232000000
65 1 27.7821093900 2.0228571429 49.5727000000
66 2 29.9961897471 2.0228571429 48.6232000000
67 1 31.1032826043 0.1053571429 49.5727000000
68 2 26.6750165329 3.9403571429 52.7592000000
69 1 27.7821093900 5.8578571429 51.8097000000
70 2 29.9961897471 5.8578571429 52.7592000000
71 1 31.1032826043 3.9403571429 51.8097000000
72 2 26.6750165329 3.9403571429 48.6232000000
73 1 27.7821093900 5.8578571429 49.5727000000
74 2 29.9961897471 5.8578571429 48.6232000000
75 1 31.1032826043 3.9403571429 49.5727000000
76 2 33.3174683186 0.1053571429 52.7592000000
77 1 34.4244558186 2.0228571429 51.8097000000
78 2 36.6386415329 2.0228571429 52.7592000000
79 1 37.7457343900 0.1053571429 51.8097000000
80 2 33.3174683186 0.1053571429 48.6232000000
81 1 34.4244558186 2.0228571429 49.5727000000
82 2 36.6386415329 2.0228571429 48.6232000000
83 1 37.7457343900 0.1053571429 49.5727000000
84 2 33.3174683186 3.9403571429 52.7592000000
85 1 34.4244558186 5.8578571429 51.8097000000
86 2 36.6386415329 5.8578571429 52.7592000000
87 1 37.7457343900 3.9403571429 51.8097000000
88 2 33.3174683186 3.9403571429 48.6232000000
89 1 34.4244558186 5.8578571429 49.5727000000
90 2 36.6386415329 5.8578571429 48.6232000000
91 1 37.7457343900 3.9403571429 49.5727000000
92 1 41.0669390850 2.0228571429 51.8097000000
93 2 43.2810194421 2.0228571429 52.7592000000
94 1 44.3881122993 0.1053571429 51.8097000000
95 2 39.9598462279 0.1053571429 48.6232000000
96 1 41.0669390850 2.0228571429 49.5727000000
97 2 43.2810194421 2.0228571429 48.6232000000
98 1 44.3881122993 0.1053571429 49.5727000000
99 2 39.9598462279 3.9403571429 52.7592000000
100 1 41.0669390850 5.8578571429 51.8097000000
101 1 44.3881122993 3.9403571429 51.8097000000
102 2 39.9598462279 3.9403571429 48.6232000000
103 1 41.0669390850 5.8578571429 49.5727000000
104 2 43.2810194421 5.8578571429 48.6232000000
105 1 44.3881122993 3.9403571429 49.5727000000
106 2 46.6022980136 0.1053571429 52.7592000000
107 1 47.7092855136 2.0228571429 51.8097000000
108 1 51.0305640850 0.1053571429 51.8097000000
109 2 46.6022980136 0.1053571429 48.6232000000
110 1 47.7092855136 2.0228571429 49.5727000000
111 2 49.9234712279 2.0228571429 48.6232000000
112 1 51.0305640850 0.1053571429 49.5727000000
113 2 46.6022980136 3.9403571429 52.7592000000
114 1 47.7092855136 5.8578571429 51.8097000000
115 2 49.9234712279 5.8578571429 52.7592000000
116 1 51.0305640850 3.9403571429 51.8097000000
117 2 46.6022980136 3.9403571429 48.6232000000
118 1 47.7092855136 5.8578571429 49.5727000000
119 2 49.9234712279 5.8578571429 48.6232000000
120 1 51.0305640850 3.9403571429 49.5727000000
121 2 53.2446759229 0.1053571429 52.7592000000
122 1 54.3517687800 2.0228571429 51.8097000000
123 2 56.5658491371 2.0228571429 52.7592000000
124 1 57.6729419943 0.1053571429 51.8097000000
125 2 53.2446759229 0.1053571429 48.6232000000
126 1 54.3517687800 2.0228571429 49.5727000000
127 2 56.5658491371 2.0228571429 48.6232000000
128 1 57.6729419943 0.1053571429 49.5727000000
129 2 53.2446759229 3.9403571429 52.7592000000
130 1 54.3517687800 5.8578571429 51.8097000000
131 2 56.5658491371 5.8578571429 52.7592000000
132 1 57.6729419943 3.9403571429 51.8097000000
133 2 53.2446759229 3.9403571429 48.6232000000
134 1 54.3517687800 5.8578571429 49.5727000000
135 2 56.5658491371 5.8578571429 48.6232000000
136 1 57.6729419943 3.9403571429 49.5727000000
137 2 59.8871277086 0.1053571429 52.7592000000
138 1 60.9941152086 2.0228571429 51.8097000000
139 2 63.2083009229 2.0228571429 52.7592000000
140 1 64.3153937800 0.1053571429 51.8097000000
141 1 60.9941152086 2.0228571429 49.5727000000
142 2 63.2083009229 2.0228571429 48.6232000000
143 1 64.3153937800 0.1053571429 49.5727000000
144 2 59.8871277086 3.9403571429 52.7592000000
145 1 60.9941152086 5.8578571429 51.8097000000
146 2 63.2083009229 5.8578571429 52.7592000000
147 1 64.3153937800 3.9403571429 51.8097000000
148 2 59.8871277086 3.9403571429 48.6232000000
149 1 60.9941152086 5.8578571429 49.5727000000
150 2 63.2083009229 5.8578571429 48.6232000000
151 1 64.3153937800 3.9403571429 49.5727000000
152 2 66.5295056179 0.1053571429 52.7592000000
153 1 67.6365984750 2.0228571429 51.8097000000
154 2 69.8506788321 2.0228571429 52.7592000000
155 1 70.9577716893 0.1053571429 51.8097000000
156 2 66.5295056179 0.1053571429 48.6232000000
157 1 67.6365984750 2.0228571429 49.5727000000
158 2 69.8506788321 2.0228571429 48.6232000000
159 1 70.9577716893 0.1053571429 49.5727000000
160 1 67.6365984750 5.8578571429 51.8097000000
161 2 69.8506788321 5.8578571429 52.7592000000
162 1 70.9577716893 3.9403571429 51.8097000000
163 2 66.5295056179 3.9403571429 48.6232000000
164 1 67.6365984750 5.8578571429 49.5727000000
165 2 69.8506788321 5.8578571429 48.6232000000
166 1 70.9577716893 3.9403571429 49.5727000000
167 2 73.1719574036 0.1053571429 52.7592000000
168 1 74.2789449036 2.0228571429 51.8097000000
169 2 76.4931306179 2.0228571429 52.7592000000
170 1 77.6002234750 0.1053571429 51.8097000000
171 2 73.1719574036 0.1053571429 48.6232000000
172 1 74.2789449036 2.0228571429 49.5727000000
173 2 76.4931306179 2.0228571429 48.6232000000
174 1 77.6002234750 0.1053571429 49.5727000000
175 1 74.2789449036 5.8578571429 51.8097000000
176 2 76.4931306179 5.8578571429 52.7592000000
177 1 77.6002234750 3.9403571429 51.8097000000
178 2 73.1719574036 3.9403571429 48.6232000000
179 1 74.2789449036 5.8578571429 49.5727000000
180 2 76.4931306179 5.8578571429 48.6232000000
181 1 77.6002234750 3.9403571429 49.5727000000
182 2 79.8143353129 0.1053571429 52.7592000000
183 1 80.9214281700 2.0228571429 51.8097000000
184 2 83.1355085271 2.0228571429 52.7592000000
185 1 84.2426013843 0.1053571429 51.8097000000
186 2 79.8143353129 0.1053571429 48.6232000000
187 1 80.9214281700 2.0228571429 49.5727000000
188 2 83.1355085271 2.0228571429 48.6232000000
189 1 84.2426013843 0.1053571429 49.5727000000
190 2 79.8143353129 3.9403571429 52.7592000000
191 1 80.9214281700 5.8578571429 51.8097000000
192 2 83.1355085271 5.8578571429 52.7592000000
193 1 84.2426013843 3.9403571429 51.8097000000
194 1 80.9214281700 5.8578571429 49.5727000000
195 2 83.1355085271 5.8578571429 48.6232000000
196 1 84.2426013843 3.9403571429 49.5727000000
197 2 86.4567870986 0.1053571429 52.7592000000
198 1 87.5637745986 2.0228571429 51.8097000000
199 2 89.7779603129 2.0228571429 52.7592000000
200 1 90.8850531700 0.1053571429 51.8097000000
201 2 86.4567870986 0.1053571429 48.6232000000
202 1 87.5637745986 2.0228571429 49.5727000000
203 2 89.7779603129 2.0228571429 48.6232000000
204 1 90.8850531700 0.1053571429 49.5727000000
205 1 87.5637745986 5.8578571429 51.8097000000
206 2 89.7779603129 5.8578571429 52.7592000000
207 1 90.8850531700 3.9403571429 51.8097000000
208 2 86.4567870986 3.9403571429 48.6232000000
209 1 87.5637745986 5.8578571429 49.5727000000
210 2 89.7779603129 5.8578571429 48.6232000000
211 1 90.8850531700 3.9403571429 49.5727000000
212 2 93.0991650079 0.1053571429 52.7592000000
213 1 94.2062578650 2.0228571429 51.8097000000
214 2 96.4203382221 2.0228571429 52.7592000000
215 1 97.5274310793 0.1053571429 51.8097000000
216 2 93.0991650079 0.1053571429 48.6232000000
217 1 94.2062578650 2.0228571429 49.5727000000
218 2 96.4203382221 2.0228571429 48.6232000000
219 1 97.5274310793 0.1053571429 49.5727000000
220 1 94.2062578650 5.8578571429 51.8097000000
221 2 96.4203382221 5.8578571429 52.7592000000
222 1 97.5274310793 3.9403571429 51.8097000000
223 2 93.0991650079 3.9403571429 48.6232000000
224 1 94.2062578650 5.8578571429 49.5727000000
225 2 96.4203382221 5.8578571429 48.6232000000
226 1 97.5274310793 3.9403571429 49.5727000000
227 2 99.7416167936 0.1053571429 52.7592000000
228 1 100.8486042936 2.0228571429 51.8097000000
229 2 103.0627900079 2.0228571429 52.7592000000
230 1 104.1698828650 0.1053571429 51.8097000000
231 2 99.7416167936 0.1053571429 48.6232000000
232 1 100.8486042936 2.0228571429 49.5727000000
233 2 103.0627900079 2.0228571429 48.6232000000
234 1 104.1698828650 0.1053571429 49.5727000000
235 2 99.7416167936 3.9403571429 52.7592000000
236 1 100.8486042936 5.8578571429 51.8097000000
237 2 103.0627900079 5.8578571429 52.7592000000
238 1 104.1698828650 3.9403571429 51.8097000000
239 2 99.7416167936 3.9403571429 48.6232000000
240 1 100.8486042936 5.8578571429 49.5727000000
241 1 104.1698828650 3.9403571429 49.5727000000
242 2 106.3839947029 0.1053571429 52.7592000000
243 1 107.4910875600 2.0228571429 51.8097000000
244 2 109.7051679171 2.0228571429 52.7592000000
245 1 110.8122607743 0.1053571429 51.8097000000
246 2 106.3839947029 0.1053571429 48.6232000000
247 1 107.4910875600 2.0228571429 49.5727000000
248 2 109.7051679171 2.0228571429 48.6232000000
249 1 110.8122607743 0.1053571429 49.5727000000
250 2 106.3839947029 3.9403571429 52.7592000000
251 1 107.4910875600 5.8578571429 51.8097000000
252 1 110.8122607743 3.9403571429 51.8097000000
253 2 106.3839947029 3.9403571429 48.6232000000
254 1 107.4910875600 5.8578571429 49.5727000000
255 2 109.7051679171 5.8578571429 48.6232000000
256 1 110.8122607743 3.9403571429 49.5727000000
257 2 113.0264464886 0.1053571429 52.7592000000
258 1 114.1334339886 2.0228571429 51.8097000000
259 2 116.3476197029 2.0228571429 52.7592000000
260 1 117.4547125600 0.1053571429 51.8097000000
261 2 113.0264464886 0.1053571429 48.6232000000
262 1 114.1334339886 2.0228571429 49.5727000000
263 2 116.3476197029 2.0228571429 48.6232000000
264 1 117.4547125600 0.1053571429 49.5727000000
265 2 113.0264464886 3.9403571429 52.7592000000
266 1 114.1334339886 5.8578571429 51.8097000000
267 1 117.4547125600 3.9403571429 51.8097000000
268 2 113.0264464886 3.9403571429 48.6232000000
269 1 114.1334339886 5.8578571429 49.5727000000
270 2 116.3476197029 5.8578571429 48.6232000000
271 1 117.4547125600 3.9403571429 49.5727000000
272 2 119.6688243979 0.1053571429 52.7592000000
273 1 120.7759172550 2.0228571429 51.8097000000
274 1 124.0970904693 0.1053571429 51.8097000000
275 2 119.6688243979 0.1053571429 48.6232000000
276 1 120.7759172550 2.0228571429 49.5727000000
277 2 122.9899976121 2.0228571429 48.6232000000
278 1 124.0970904693 0.1053571429 49.5727000000
279 2 119.6688243979 3.9403571429 52.7592000000
280 1 120.7759172550 5.8578571429 51.8097000000
281 2 122.9899976121 5.8578571429 52.7592000000
282 1 124.0970904693 3.9403571429 51.8097000000
283 2 119.6688243979 3.9403571429 48.6232000000
284 1 120.7759172550 5.8578571429 49.5727000000
285 2 122.9899976121 5.8578571429 48.6232000000
286 1 124.0970904693 3.9403571429 49.5727000000
287 2 126.3112761836 0.1053571429 52.7592000000
288 1 127.4182636836 2.0228571429 51.8097000000
289 2 129.6324493979 2.0228571429 52.7592000000
290 1 130.7395422550 0.1053571429 51.8097000000
291 2 126.3112761836 0.1053571429 48.6232000000
292 1 127.4182636836 2.0228571429 49.5727000000
293 2 129.6324493979 2.0228571429 48.6232000000
294 1 130.7395422550 0.1053571429 49.5727000000
295 2 126.3112761836 3.9403571429 52.7592000000
296 1 127.4182636836 5.8578571429 51.8097000000
297 2 129.6324493979 5.8578571429 52.7592000000
298 1 130.7395422550 3.9403571429 51.8097000000
299 2 126.3112761836 3.9403571429 48.6232000000
300 1 127.4182636836 5.8578571429 49.5727000000
301 1 130.7395422550 3.9403571429 49.5727000000
302 2 0.1053571429 7.7753571429 52.7592000000
303 1 1.2124500000 9.6928571429 51.8097000000
304 2 3.4265303571 9.6928571429 52.7592000000
305 1 4.5336232143 7.7753571429 51.8097000000
306 2 0.1053571429 7.7753571429 48.6232000000
307 1 1.2124500000 9.6928571429 49.5727000000
308 1 4.5336232143 7.7753571429 49.5727000000
309 2 0.1053571429 11.6103571429 52.7592000000
310 1 1.2124500000 13.5278571429 51.8097000000
311 2 3.4265303571 13.5278571429 52.7592000000
312 1 4.5336232143 11.6103571429 51.8097000000
313 2 0.1053571429 11.6103571429 48.6232000000
314 1 1.2124500000 13.5278571429 49.5727000000
315 2 3.4265303571 13.5278571429 48.6232000000
316 1 4.5336232143 11.6103571429 49.5727000000
317 2 6.7478089286 7.7753571429 52.7592000000
318 1 7.8547964286 9.6928571429 51.8097000000
319 2 10.0689821429 9.6928571429 52.7592000000
320 1 11.1760750000 7.7753571429 51.8097000000
321 2 6.7478089286 7.7753571429 48.6232000000
322 1 7.8547964286 9.6928571429 49.5727000000
323 2 10.0689821429 9.6928571429 48.6232000000
324 1 11.1760750000 7.7753571429 49.5727000000
325 2 6.7478089286 11.6103571429 52.7592000000
326 1 7.8547964286 13.5278571429 51.8097000000
327 1 11.1760750000 11.6103571429 51.8097000000
328 2 6.7478089286 11.6103571429 48.6232000000
329 1 7.8547964286 13.5278571429 49.5727000000
330 2 10.0689821429 13.5278571429 48.6232000000
331 1 11.1760750000 11.6103571429 49.5727000000
332 2 13.3901868379 7.7753571429 52.7592000000
333 1 14.4972796950 9.6928571429 51.8097000000
334 2 16.7113600521 9.6928571429 52.7592000000
335 1 17.8184529093 7.7753571429 51.8097000000
336 2 13.3901868379 7.7753571429 48.6232000000
337 1 14.4972796950 9.6928571429 49.5727000000
338 2 16.7113600521 9.6928571429 48.6232000000
339 1 17.8184529093 7.7753571429 49.5727000000
340 2 13.3901868379 11.6103571429 52.7592000000
341 1 14.4972796950 13.5278571429 51.8097000000
342 2 16.7113600521 13.5278571429 52.7592000000
343 1 17.8184529093 11.6103571429 51.8097000000
344 2 13.3901868379 11.6103571429 48.6232000000
345 1 14.4972796950 13.5278571429 49.5727000000
346 1 17.8184529093 11.6103571429 49.5727000000
347 2 20.0326386236 7.7753571429 52.7592000000
348 1 21.1396261236 9.6928571429 51.8097000000
349 2 23.3538118379 9.6928571429 52.7592000000
350 1 24.4609046950 7.7753571429 51.8097000000
351 2 20.0326386236 7.7753571429 48.6232000000
352 1 21.1396261236 9.6928571429 49.5727000000
353 2 23.3538118379 9.6928571429 48.6232000000
354 1 24.4609046950 7.7753571429 49.5727000000
355 2 20.0326386236 11.6103571429 52.7592000000
356 1 21.1396261236 13.5278571429 51.8097000000
357 1 24.4609046950 11.6103571429 51.8097000000
358 2 20.0326386236 11.6103571429 48.6232000000
359 1 21.1396261236 13.5278571429 49.5727000000
360 2 23.3538118379 13.5278571429 48.6232000000
361 1 24.4609046950 11.6103571429 49.5727000000
362 2 26.6750165329 7.7753571429 52.7592000000
363 1 27.7821093900 9.6928571429 51.8097000000
364 2 29.9961897471 9.6928571429 52.7592000000
365 1 31.1032826043 7.7753571429 51.8097000000
366 2 26.6750165329 7.7753571429 48.6232000000
367 1 27.7821093900 9.6928571429 49.5727000000
368 1 31.1032826043 7.7753571429 49.5727000000
369 2 26.6750165329 11.6103571429 52.7592000000
370 1 27.7821093900 13.5278571429 51.8097000000
371 2 29.9961897471 13.5278571429 52.7592000000
372 1 31.1032826043 11.6103571429 51.8097000000
373 2 26.6750165329 11.6103571429 48.6232000000
374 1 27.7821093900 13.5278571429 49.5727000000
375 2 29.9961897471 13.5278571429 48.6232000000
376 1 31.1032826043 11.6103571429 49.5727000000
377 2 33.3174683186 7.7753571429 52.7592000000
378 1 34.4244558186 9.6928571429 51.8097000000
379 2 36.6386415329 9.6928571429 52.7592000000
380 1 37.7457343900 7.7753571429 51.8097000000
381 2 33.3174683186 7.7753571429 48.6232000000
382 1 34.4244558186 9.6928571429 49.5727000000
383 1 37.7457343900 7.7753571429 49.5727000000
384 2 33.3174683186 11.6103571429 52.7592000000
385 1 34.4244558186 13.5278571429 51.8097000000
386 2 36.6386415329 13.5278571429 52.7592000000
387 1 37.7457343900 11.6103571429 51.8097000000
388 2 33.3174683186 11.6103571429 48.6232000000
389 1 34.4244558186 13.5278571429 49.5727000000
390 2 36.6386415329 13.5278571429 48.6232000000
391 1 37.7457343900 11.6103571429 49.5727000000
392 2 39.9598462279 7.7753571429 52.7592000000
393 1 41.0669390850 9.6928571429 51.8097000000
394 2 43.2810194421 9.6928571429 52.7592000000
395 1 44.3881122993 7.7753571429 51.8097000000
396 2 39.9598462279 7.7753571429 48.6232000000
397 1 41.0669390850 9.6928571429 49.5727000000
398 2 43.2810194421 9.6928571429 48.6232000000
399 1 44.3881122993 7.7753571429 49.5727000000
400 2 39.9598462279 11.6103571429 52.7592000000
401 1 41.0669390850 13.5278571429 51.8097000000
402 2 43.2810194421 13.5278571429 52.7592000000
403 1 44.3881122993 11.6103571429 51.8097000000
404 2 39.9598462279 11.6103571429 48.6232000000
405 1 41.0669390850 13.5278571429 49.5727000000
406 2 43.2810194421 13.5278571429 48.6232000000
407 1 44.3881122993 11.6103571429 49.5727000000
408 2 46.6022980136 7.7753571429 52.7592000000
409 1 47.7092855136 9.6928571429 51.8097000000
410 2 49.9234712279 9.6928571429 52.7592000000
411 1 51.0305640850 7.7753571429 51.8097000000
412 2 46.6022980136 7.7753571429 48.6232000000
413 1 47.7092855136 9.6928571429 49.5727000000
414 2 49.9234712279 9.6928571429 48.6232000000
415 1 51.0305640850 7.7753571429 49.5727000000
416 2 46.6022980136 11.6103571429 52.7592000000
417 1 47.7092855136 13.5278571429 51.8097000000
418 2 49.9234712279 13.5278571429 52.7592000000
419 1 51.0305640850 11.6103571429 51.8097000000
420 1 47.7092855136 13.5278571429 49.5727000000
421 2 49.9234712279 13.5278571429 48.6232000000
422 1 51.0305640850 11.6103571429 49.5727000000
423 2 53.2446759229 7.7753571429 52.7592000000
424 1 54.3517687800 9.6928571429 51.8097000000
425 2 56.5658491371 9.6928571429 52.7592000000
426 1 57.6729419943 7.7753571429 51.8097000000
427 2 53.2446759229 7.7753571429 48.6232000000
428 1 54.3517687800 9.6928571429 49.5727000000
429 2 56.5658491371 9.6928571429 48.6232000000
430 1 57.6729419943 7.7753571429 49.5727000000
431 2 53.2446759229 11.6103571429 52.7592000000
432 1 54.3517687800 13.5278571429 51.8097000000
433 2 56.5658491371 13.5278571429 52.7592000000
434 1 57.6729419943 11.6103571429 51.8097000000
435 1 54.3517687800 13.5278571429 49.5727000000
436 2 56.5658491371 13.5278571429 48.6232000000
437 1 57.6729419943 11.6103571429 49.5727000000
438 2 59.8871277086 7.7753571429 52.7592000000
439 1 60.9941152086 9.6928571429 51.8097000000
440 2 63.2083009229 9.6928571429 52.7592000000
441 1 64.3153937800 7.7753571429 51.8097000000
442 1 60.9941152086 9.6928571429 49.5727000000
443 2 63.2083009229 9.6928571429 48.6232000000
444 1 64.3153937800 7.7753571429 49.5727000000
445 2 59.8871277086 11.6103571429 52.7592000000
446 1 60.9941152086 13.5278571429 51.8097000000
447 2 63.2083009229 13.5278571429 52.7592000000
448 1 64.3153937800 11.6103571429 51.8097000000
449 2 59.8871277086 11.6103571429 48.6232000000
450 1 60.9941152086 13.5278571429 49.5727000000
451 2 63.2083009229 13.5278571429 48.6232000000
452 1 64.3153937800 11.6103571429 49.5727000000
453 2 66.5295056179 7.7753571429 52.7592000000
454 1 67.6365984750 9.6928571429 51.8097000000
455 2 69.8506788321 9.6928571429 52.7592000000
456 1 70.9577716893 7.7753571429 51.8097000000
457 2 66.5295056179 7.7753571429 48.6232000000
458 1 67.6365984750 9.6928571429 49.5727000000
459 2 69.8506788321 9.6928571429 48.6232000000
460 1 70.9577716893 7.7753571429 49.5727000000
461 2 66.5295056179 11.6103571429 52.7592000000
462 1 67.6365984750 13.5278571429 51.8097000000
463 2 69.8506788321 13.5278571429 52.7592000000
464 1 70.9577716893 11.6103571429 51.8097000000
465 2 66.5295056179 11.6103571429 48.6232000000
466 1 67.6365984750 13.5278571429 49.5727000000
467 1 70.9577716893 11.6103571429 49.5727000000
468 2 73.1719574036 7.7753571429 52.7592000000
469 1 74.2789449036 9.6928571429 51.8097000000
470 2 76.4931306179 9.6928571429 52.7592000000
471 1 77.6002234750 7.7753571429 51.8097000000
472 2 73.1719574036 7.7753571429 48.6232000000
473 1 74.2789449036 9.6928571429 49.5727000000
474 2 76.4931306179 9.6928571429 48.6232000000
475 1 77.6002234750 7.7753571429 49.5727000000
476 2 73.1719574036 11.6103571429 52.7592000000
477 1 74.2789449036 13.5278571429 51.8097000000
478 1 77.6002234750 11.6103571429 51.8097000000
479 2 73.1719574036 11.6103571429 48.6232000000
480 1 74.2789449036 13.5278571429 49.5727000000
481 2 76.4931306179 13.5278571429 48.6232000000
482 1 77.6002234750 11.6103571429 49.5727000000
483 2 79.8143353129 7.7753571429 52.7592000000
484 1 80.9214281700 9.6928571429 51.8097000000
485 2 83.1355085271 9.6928571429 52.7592000000
486 1 84.2426013843 7.7753571429 51.8097000000
487 2 79.8143353129 7.7753571429 48.6232000000
488 1 80.9214281700 9.6928571429 49.5727000000
489 2 83.1355085271 9.6928571429 48.6232000000
490 1 84.2426013843 7.7753571429 49.5727000000
491 2 79.8143353129 11.6103571429 52.7592000000
492 1 80.9214281700 13.5278571429 51.8097000000
493 2 83.1355085271 13.5278571429 52.7592000000
494 1 84.2426013843 11.6103571429 51.8097000000
495 2 79.8143353129 11.6103571429 48.6232000000
496 1 80.9214281700 13.5278571429 49.5727000000
497 1 84.2426013843 11.6103571429 49.5727000000
498 2 86.4567870986 7.7753571429 52.7592000000
499 1 87.5637745986 9.6928571429 51.8097000000
500 2 89.7779603129 9.6928571429 52.7592000000
501 1 90.8850531700 7.7753571429 51.8097000000
502 2 86.4567870986 7.7753571429 48.6232000000
503 1 87.5637745986 9.6928571429 49.5727000000
504 1 90.8850531700 7.7753571429 49.5727000000
505 2 86.4567870986 11.6103571429 52.7592000000
506 1 87.5637745986 13.5278571429 51.8097000000
507 2 89.7779603129 13.5278571429 52.7592000000
508 1 90.8850531700 11.6103571429 51.8097000000
509 2 86.4567870986 11.6103571429 48.6232000000
510 1 87.5637745986 13.5278571429 49.5727000000
511 2 89.7779603129 13.5278571429 48.6232000000
512 1 90.8850531700 11.6103571429 49.5727000000
513 2 93.0991650079 7.7753571429 52.7592000000
514 1 94.2062578650 9.6928571429 51.8097000000
515 2 96.4203382221 9.6928571429 52.7592000000
516 1 97.5274310793 7.7753571429 51.8097000000
517 2 93.0991650079 7.7753571429 48.6232000000
518 1 94.2062578650 9.6928571429 49.5727000000
519 1 97.5274310793 7.7753571429 49.5727000000
520 2 93.0991650079 11.6103571429 52.7592000000
521 1 94.2062578650 13.5278571429 51.8097000000
522 2 96.4203382221 13.5278571429 52.7592000000
523 1 97.5274310793 11.6103571429 51.8097000000
524 2 93.0991650079 11.6103571429 48.6232000000
525 1 94.2062578650 13.5278571429 49.5727000000
526 2 96.4203382221 13.5278571429 48.6232000000
527 1 97.5274310793 11.6103571429 49.5727000000
528 2 99.7416167936 7.7753571429 52.7592000000
529 1 100.8486042936 9.6928571429 51.8097000000
530 2 103.0627900079 9.6928571429 52.7592000000
531 1 104.1698828650 7.7753571429 51.8097000000
532 2 99.7416167936 7.7753571429 48.6232000000
533 1 100.8486042936 9.6928571429 49.5727000000
534 2 103.0627900079 9.6928571429 48.6232000000
535 1 104.1698828650 7.7753571429 49.5727000000
536 2 99.7416167936 11.6103571429 52.7592000000
537 1 100.8486042936 13.5278571429 51.8097000000
538 2 103.0627900079 13.5278571429 52.7592000000
539 1 104.1698828650 11.6103571429 51.8097000000
540 2 99.7416167936 11.6103571429 48.6232000000
541 1 100.8486042936 13.5278571429 49.5727000000
542 2 103.0627900079 13.5278571429 48.6232000000
543 1 104.1698828650 11.6103571429 49.5727000000
544 2 106.3839947029 7.7753571429 52.7592000000
545 1 107.4910875600 9.6928571429 51.8097000000
546 2 109.7051679171 9.6928571429 52.7592000000
547 1 110.8122607743 7.7753571429 51.8097000000
548 2 106.3839947029 7.7753571429 48.6232000000
549 1 107.4910875600 9.6928571429 49.5727000000
550 2 109.7051679171 9.6928571429 48.6232000000
551 1 110.8122607743 7.7753571429 49.5727000000
552 2 106.3839947029 11.6103571429 52.7592000000
553 1 107.4910875600 13.5278571429 51.8097000000
554 2 109.7051679171 13.5278571429 52.7592000000
555 1 110.8122607743 11.6103571429 51.8097000000
556 1 107.4910875600 13.5278571429 49.5727000000
557 2 109.7051679171 13.5278571429 48.6232000000
558 1 110.8122607743 11.6103571429 49.5727000000
559 2 113.0264464886 7.7753571429 52.7592000000
560 1 114.1334339886 9.6928571429 51.8097000000
561 2 116.3476197029 9.6928571429 52.7592000000
562 1 117.4547125600 7.7753571429 51.8097000000
563 2 113.0264464886 7.7753571429 48.6232000000
564 1 114.1334339886 9.6928571429 49.5727000000
565 2 116.3476197029 9.6928571429 48.6232000000
566 1 117.4547125600 7.7753571429 49.5727000000
567 2 113.0264464886 11.6103571429 52.7592000000
568 1 114.1334339886 13.5278571429 51.8097000000
569 2 116.3476197029 13.5278571429 52.7592000000
570 1 117.4547125600 11.6103571429 51.8097000000
571 2 113.0264464886 11.6103571429 48.6232000000
572 1 114.1334339886 13.5278571429 49.5727000000
573 1 117.4547125600 11.6103571429 49.5727000000
574 2 119.6688243979 7.7753571429 52.7592000000
575 1 120.7759172550 9.6928571429 51.8097000000
576 2 122.9899976121 9.6928571429 52.7592000000
577 1 124.0970904693 7.7753571429 51.8097000000
578 2 119.6688243979 7.7753571429 48.6232000000
579 1 120.7759172550 9.6928571429 49.5727000000
580 2 122.9899976121 9.6928571429 48.6232000000
581 1 124.0970904693 7.7753571429 49.5727000000
582 2 119.6688243979 11.6103571429 52.7592000000
583 1 120.7759172550 13.5278571429 51.8097000000
584 2 122.9899976121 13.5278571429 52.7592000000
585 1 124.0970904693 11.6103571429 51.8097000000
586 2 119.6688243979 11.6103571429 48.6232000000
587 1 120.7759172550 13.5278571429 49.5727000000
588 1 124.0970904693 11.6103571429 49.5727000000
589 2 126.3112761836 7.7753571429 52.7592000000
590 1 127.4182636836 9.6928571429 51.8097000000
591 2 129.6324493979 9.6928571429 52.7592000000
592 1 130.7395422550 7.7753571429 51.8097000000
593 2 126.3112761836 7.7753571429 48.6232000000
594 1 127.4182636836 9.6928571429 49.5727000000
595 2 129.6324493979 9.6928571429 48.6232000000
596 1 130.7395422550 7.7753571429 49.5727000000
597 2 126.3112761836 11.6103571429 52.7592000000
598 1 127.4182636836 13.5278571429 51.8097000000
599 2 129.6324493979 13.5278571429 52.7592000000
600 1 130.7395422550 11.6103571429 51.8097000000
601 2 126.3112761836 11.6103571429 48.6232000000
602 1 127.4182636836 13.5278571429 49.5727000000
603 2 129.6324493979 13.5278571429 48.6232000000
604 1 130.7395422550 11.6103571429 49.5727000000
605 2 0.1053571429 15.4453571429 52.7592000000
606 1 1.2124500000 17.3628571429 51.8097000000
607 2 3.4265303571 17.3628571429 52.7592000000
608 1 4.5336232143 15.4453571429 51.8097000000
609 2 0.1053571429 15.4453571429 48.6232000000
610 1 1.2124500000 17.3628571429 49.5727000000
611 2 3.4265303571 17.3628571429 48.6232000000
612 1 4.5336232143 15.4453571429 49.5727000000
613 1 1.2124500000 21.1978571429 51.8097000000
614 2 3.4265303571 21.1978571429 52.7592000000
615 1 4.5336232143 19.2803571429 51.8097000000
616 2 0.1053571429 19.2803571429 48.6232000000
617 1 1.2124500000 21.1978571429 49.5727000000
618 2 3.4265303571 21.1978571429 48.6232000000
619 1 4.5336232143 19.2803571429 49.5727000000
620 2 6.7478089286 15.4453571429 52.7592000000
621 1 7.8547964286 17.3628571429 51.8097000000
622 2 10.0689821429 17.3628571429 52.7592000000
623 1 11.1760750000 15.4453571429 51.8097000000
624 2 6.7478089286 15.4453571429 48.6232000000
625 1 7.8547964286 17.3628571429 49.5727000000
626 2 10.0689821429 17.3628571429 48.6232000000
627 1 11.1760750000 15.4453571429 49.5727000000
628 2 6.7478089286 19.2803571429 52.7592000000
629 1 7.8547964286 21.1978571429 51.8097000000
630 1 11.1760750000 19.2803571429 51.8097000000
631 2 6.7478089286 19.2803571429 48.6232000000
632 1 7.8547964286 21.1978571429 49.5727000000
633 2 10.0689821429 21.1978571429 48.6232000000
634 1 11.1760750000 19.2803571429 49.5727000000
635 2 13.3901868379 15.4453571429 52.7592000000
636 1 14.4972796950 17.3628571429 51.8097000000
637 2 16.7113600521 17.3628571429 52.7592000000
638 1 17.8184529093 15.4453571429 51.8097000000
639 2 13.3901868379 15.4453571429 48.6232000000
640 1 14.4972796950 17.3628571429 49.5727000000
641 2 16.7113600521 17.3628571429 48.6232000000
642 1 17.8184529093 15.4453571429 49.5727000000
643 2 13.3901868379 19.2803571429 52.7592000000
644 1 14.4972796950 21.1978571429 51.8097000000
645 2 16.7113600521 21.1978571429 52.7592000000
646 1 17.8184529093 19.2803571429 51.8097000000
647 2 13.3901868379 19.2803571429 48.6232000000
648 1 14.4972796950 21.1978571429 49.5727000000
649 2 16.7113600521 21.1978571429 48.6232000000
650 1 17.8184529093 19.2803571429 49.5727000000
651 2 20.0326386236 15.4453571429 52.7592000000
652 1 21.1396261236 17.3628571429 51.8097000000
653 2 23.3538118379 17.3628571429 52.7592000000
654 1 24.4609046950 15.4453571429 51.8097000000
655 2 20.0326386236 15.4453571429 48.6232000000
656 1 21.1396261236 17.3628571429 49.5727000000
657 2 23.3538118379 17.3628571429 48.6232000000
658 1 24.4609046950 15.4453571429 49.5727000000
659 2 20.0326386236 19.2803571429 52.7592000000
660 1 21.1396261236 21.1978571429 51.8097000000
661 2 23.3538118379 21.1978571429 52.7592000000
662 1 24.4609046950 19.2803571429 51.8097000000
663 2 20.0326386236 19.2803571429 48.6232000000
664 1 21.1396261236 21.1978571429 49.5727000000
665 2 23.3538118379 21.1978571429 48.6232000000
666 1 24.4609046950 19.2803571429 49.5727000000
667 2 26.6750165329 15.4453571429 52.7592000000
668 1 27.7821093900 17.3628571429 51.8097000000
669 2 29.9961897471 17.3628571429 52.7592000000
670 1 31.1032826043 15.4453571429 51.8097000000
671 2 26.6750165329 15.4453571429 48.6232000000
672 1 27.7821093900 17.3628571429 49.5727000000
673 2 29.9961897471 17.3628571429 48.6232000000
674 1 31.1032826043 15.4453571429 49.5727000000
675 2 26.6750165329 19.2803571429 52.7592000000
676 1 27.7821093900 21.1978571429 51.8097000000
677 2 29.9961897471 21.1978571429 52.7592000000
678 1 31.1032826043 19.2803571429 51.8097000000
679 2 26.6750165329 19.2803571429 48.6232000000
680 1 27.7821093900 21.1978571429 49.5727000000
681 2 29.9961897471 21.1978571429 48.6232000000
682 1 31.1032826043 19.2803571429 49.5727000000
683 1 34.4244558186 17.3628571429 51.8097000000
684 2 36.6386415329 17.3628571429 52.7592000000
685 1 37.7457343900 15.4453571429 51.8097000000
686 2 33.3174683186 15.4453571429 48.6232000000
687 1 34.4244558186 17.3628571429 49.5727000000
688 2 36.6386415329 17.3628571429 48.6232000000
689 1 37.7457343900 15.4453571429 49.5727000000
690 2 33.3174683186 19.2803571429 52.7592000000
691 1 34.4244558186 21.1978571429 51.8097000000
692 2 36.6386415329 21.1978571429 52.7592000000
693 1 37.7457343900 19.2803571429 51.8097000000
694 2 33.3174683186 19.2803571429 48.6232000000
695 1 34.4244558186 21.1978571429 49.5727000000
696 2 36.6386415329 21.1978571429 48.6232000000
697 1 37.7457343900 19.2803571429 49.5727000000
698 2 39.9598462279 15.4453571429 52.7592000000
699 1 41.0669390850 17.3628571429 51.8097000000
700 2 43.2810194421 17.3628571429 52.7592000000
701 1 44.3881122993 15.4453571429 51.8097000000
702 2 39.9598462279 15.4453571429 48.6232000000
703 1 41.0669390850 17.3628571429 49.5727000000
704 2 43.2810194421 17.3628571429 48.6232000000
705 1 44.3881122993 15.4453571429 49.5727000000
706 2 39.9598462279 19.2803571429 52.7592000000
707 1 41.0669390850 21.1978571429 51.8097000000
708 2 43.2810194421 21.1978571429 52.7592000000
709 1 44.3881122993 19.2803571429 51.8097000000
710 2 39.9598462279 19.2803571429 48.6232000000
711 1 41.0669390850 21.1978571429 49.5727000000
712 2 43.2810194421 21.1978571429 48.6232000000
713 1 44.3881122993 19.2803571429 49.5727000000
714 2 46.6022980136 15.4453571429 52.7592000000
715 1 47.7092855136 17.3628571429 51.8097000000
716 2 49.9234712279 17.3628571429 52.7592000000
717 1 51.0305640850 15.4453571429 51.8097000000
718 2 46.6022980136 15.4453571429 48.6232000000
719 1 47.7092855136 17.3628571429 49.5727000000
720 2 49.9234712279 17.3628571429 48.6232000000
721 1 51.0305640850 15.4453571429 49.5727000000
722 2 46.6022980136 19.2803571429 52.7592000000
723 1 47.7092855136 21.1978571429 51.8097000000
724 2 49.9234712279 21.1978571429 52.7592000000
725 1 51.0305640850 19.2803571429 51.8097000000
726 1 47.7092855136 21.1978571429 49.5727000000
727 2 49.9234712279 21.1978571429 48.6232000000
728 1 51.0305640850 19.2803571429 49.5727000000
729 2 53.2446759229 15.4453571429 52.7592000000
730 1 54.3517687800 17.3628571429 51.8097000000
731 2 56.5658491371 17.3628571429 52.7592000000
732 1 57.6729419943 15.4453571429 51.8097000000
733 2 53.2446759229 15.4453571429 48.6232000000
734 1 54.3517687800 17.3628571429 49.5727000000
735 1 57.6729419943 15.4453571429 49.5727000000
736 2 53.2446759229 19.2803571429 52.7592000000
737 1 54.3517687800 21.1978571429 51.8097000000
738 2 56.5658491371 21.1978571429 52.7592000000
739 1 57.6729419943 19.2803571429 51.8097000000
740 2 53.2446759229 19.2803571429 48.6232000000
741 1 54.3517687800 21.1978571429 49.5727000000
742 2 56.5658491371 21.1978571429 48.6232000000
743 1 57.6729419943 19.2803571429 49.5727000000
744 2 59.8871277086 15.4453571429 52.7592000000
745 1 60.9941152086 17.3628571429 51.8097000000
746 1 64.3153937800 15.4453571429 51.8097000000
747 2 59.8871277086 15.4453571429 48.6232000000
748 1 60.9941152086 17.3628571429 49.5727000000
749 2 63.2083009229 17.3628571429 48.6232000000
750 1 64.3153937800 15.4453571429 49.5727000000
751 2 59.8871277086 19.2803571429 52.7592000000
752 1 60.9941152086 21.1978571429 51.8097000000
753 2 63.2083009229 21.1978571429 52.7592000000
754 1 64.3153937800 19.2803571429 51.8097000000
755 2 59.8871277086 19.2803571429 48.6232000000
756 1 60.9941152086 21.1978571429 49.5727000000
757 2 63.2083009229 21.1978571429 48.6232000000
758 1 64.3153937800 19.2803571429 49.5727000000
759 2 66.5295056179 15.4453571429 52.7592000000
760 1 67.6365984750 17.3628571429 51.8097000000
761 2 69.8506788321 17.3628571429 52.7592000000
762 1 70.9577716893 15.4453571429 51.8097000000
763 2 66.5295056179 15.4453571429 48.6232000000
764 1 67.6365984750 17.3628571429 49.5727000000
765 2 69.8506788321 17.3628571429 48.6232000000
766 1 70.9577716893 15.4453571429 49.5727000000
767 2 66.5295056179 19.2803571429 52.7592000000
768 1 67.6365984750 21.1978571429 51.8097000000
769 2 69.8506788321 21.1978571429 52.7592000000
770 1 70.9577716893 19.2803571429 51.8097000000
771 2 66.5295056179 19.2803571429 48.6232000000
772 1 67.6365984750 21.1978571429 49.5727000000
773 2 69.8506788321 21.1978571429 48.6232000000
774 1 70.9577716893 19.2803571429 49.5727000000
775 2 73.1719574036 15.4453571429 52.7592000000
776 1 74.2789449036 17.3628571429 51.8097000000
777 2 76.4931306179 17.3628571429 52.7592000000
778 1 77.6002234750 15.4453571429 51.8097000000
779 2 73.1719574036 15.4453571429 48.6232000000
780 1 74.2789449036 17.3628571429 49.5727000000
781 2 76.4931306179 17.3628571429 48.6232000000
782 1 77.6002234750 15.4453571429 49.5727000000
783 2 73.1719574036 19.2803571429 52.7592000000
784 1 74.2789449036 21.1978571429 51.8097000000
785 2 76.4931306179 21.1978571429 52.7592000000
786 1 77.6002234750 19.2803571429 51.8097000000
787 1 74.2789449036 21.1978571429 49.5727000000
788 2 76.4931306179 21.1978571429 48.6232000000
789 1 77.6002234750 19.2803571429 49.5727000000
790 2 79.8143353129 15.4453571429 52.7592000000
791 1 80.9214281700 17.3628571429 51.8097000000
792 2 83.1355085271 17.3628571429 52.7592000000
793 1 84.2426013843 15.4453571429 51.8097000000
794 2 79.8143353129 15.4453571429 48.6232000000
795 1 80.9214281700 17.3628571429 49.5727000000
796 2 83.1355085271 17.3628571429 48.6232000000
797 1 84.2426013843 15.4453571429 49.5727000000
798 2 79.8143353129 19.2803571429 52.7592000000
799 1 80.9214281700 21.1978571429 51.8097000000
800 2 83.1355085271 21.1978571429 52.7592000000
801 1 84.2426013843 19.2803571429 51.8097000000
802 2 79.8143353129 19.2803571429 48.6232000000
803 1 80.9214281700 21.1978571429 49.5727000000
804 1 84.2426013843 19.2803571429 49.5727000000
805 2 86.4567870986 15.4453571429 52.7592000000
806 1 87.5637745986 17.3628571429 51.8097000000
807 2 89.7779603129 17.3628571429 52.7592000000
808 1 90.8850531700 15.4453571429 51.8097000000
809 2 86.4567870986 15.4453571429 48.6232000000
810 1 87.5637745986 17.3628571429 49.5727000000
811 2 89.7779603129 17.3628571429 48.6232000000
812 1 90.8850531700 15.4453571429 49.5727000000
813 2 86.4567870986 19.2803571429 52.7592000000
814 1 87.5637745986 21.1978571429 51.8097000000
815 2 89.7779603129 21.1978571429 52.7592000000
816 1 90.8850531700 19.2803571429 51.8097000000
817 2 86.4567870986 19.2803571429 48.6232000000
818 1 87.5637745986 21.1978571429 49.5727000000
819 2 89.7779603129 21.1978571429 48.6232000000
820 1 90.8850531700 19.2803571429 49.5727000000
821 2 93.0991650079 15.4453571429 52.7592000000
822 1 94.2062578650 17.3628571429 51.8097000000
823 2 96.4203382221 17.3628571429 52.7592000000
824 1 97.5274310793 15.4453571429 51.8097000000
825 2 93.0991650079 15.4453571429 48.6232000000
826 1 94.2062578650 17.3628571429 49.5727000000
827 2 96.4203382221 17.3628571429 48.6232000000
828 1 97.5274310793 15.4453571429 49.5727000000
829 1 94.2062578650 21.1978571429 51.8097000000
830 2 96.4203382221 21.1978571429 52.7592000000
831 1 97.5274310793 19.2803571429 51.8097000000
832 2 93.0991650079 19.2803571429 48.6232000000
833 1 94.2062578650 21.1978571429 49.5727000000
834 2 96.4203382221 21.1978571429 48.6232000000
835 1 97.5274310793 19.2803571429 49.5727000000
836 2 99.7416167936 15.4453571429 52.7592000000
837 1 100.8486042936 17.3628571429 51.8097000000
838 2 103.0627900079 17.3628571429 52.7592000000
839 1 104.1698828650 15.4453571429 51.8097000000
840 2 99.7416167936 15.4453571429 48.6232000000
841 1 100.8486042936 17.3628571429 49.5727000000
842 2 103.0627900079 17.3628571429 48.6232000000
843 1 104.1698828650 15.4453571429 49.5727000000
844 2 99.7416167936 19.2803571429 52.7592000000
845 1 100.8486042936 21.1978571429 51.8097000000
846 2 103.0627900079 21.1978571429 52.7592000000
847 1 104.1698828650 19.2803571429 51.8097000000
848 2 99.7416167936 19.2803571429 48.6232000000
849 1 100.8486042936 21.1978571429 49.5727000000
850 2 103.0627900079 21.1978571429 48.6232000000
851 1 104.1698828650 19.2803571429 49.5727000000
852 2 106.3839947029 15.4453571429 52.7592000000
853 1 107.4910875600 17.3628571429 51.8097000000
854 2 109.7051679171 17.3628571429 52.7592000000
855 1 110.8122607743 15.4453571429 51.8097000000
856 2 106.3839947029 15.4453571429 48.6232000000
857 1 107.4910875600 17.3628571429 49.5727000000
858 2 109.7051679171 17.3628571429 48.6232000000
859 1 110.8122607743 15.4453571429 49.5727000000
860 2 106.3839947029 19.2803571429 52.7592000000
861 1 107.4910875600 21.1978571429 51.8097000000
862 2 109.7051679171 21.1978571429 52.7592000000
863 1 110.8122607743 19.2803571429 51.8097000000
864 2 106.3839947029 19.2803571429 48.6232000000
865 1 107.4910875600 21.1978571429 49.5727000000
866 1 110.8122607743 19.2803571429 49.5727000000
867 2 113.0264464886 15.4453571429 52.7592000000
868 1 114.1334339886 17.3628571429 51.8097000000
869 2 116.3476197029 17.3628571429 52.7592000000
870 1 117.4547125600 15.4453571429 51.8097000000
871 2 113.0264464886 15.4453571429 48.6232000000
872 1 114.1334339886 17.3628571429 49.5727000000
873 2 116.3476197029 17.3628571429 48.6232000000
874 1 117.4547125600 15.4453571429 49.5727000000
875 2 113.0264464886 19.2803571429 52.7592000000
876 1 114.1334339886 21.1978571429 51.8097000000
877 2 116.3476197029 21.1978571429 52.7592000000
878 1 117.4547125600 19.2803571429 51.8097000000
879 2 113.0264464886 19.2803571429 48.6232000000
880 1 114.1334339886 21.1978571429 49.5727000000
881 2 116.3476197029 21.1978571429 48.6232000000
882 1 117.4547125600 19.2803571429 49.5727000000
883 2 119.6688243979 15.4453571429 52.7592000000
884 1 120.7759172550 17.3628571429 51.8097000000
885 2 122.9899976121 17.3628571429 52.7592000000
886 1 124.0970904693 15.4453571429 51.8097000000
887 2 119.6688243979 15.4453571429 48.6232000000
888 1 120.7759172550 17.3628571429 49.5727000000
889 2 122.9899976121 17.3628571429 48.6232000000
890 1 124.0970904693 15.4453571429 49.5727000000
891 2 119.6688243979 19.2803571429 52.7592000000
892 1 120.7759172550 21.1978571429 51.8097000000
893 1 124.0970904693 19.2803571429 51.8097000000
894 2 119.6688243979 19.2803571429 48.6232000000
895 1 120.7759172550 21.1978571429 49.5727000000
896 2 122.9899976121 21.1978571429 48.6232000000
897 1 124.0970904693 19.2803571429 49.5727000000
898 2 126.3112761836 15.4453571429 52.7592000000
899 1 127.4182636836 17.3628571429 51.8097000000
900 2 129.6324493979 17.3628571429 52.7592000000
901 1 130.7395422550 15.4453571429 51.8097000000
902 2 126.3112761836 15.4453571429 48.6232000000
903 1 127.4182636836 17.3628571429 49.5727000000
904 2 129.6324493979 17.3628571429 48.6232000000
905 1 130.7395422550 15.4453571429 49.5727000000
906 2 126.3112761836 19.2803571429 52.7592000000
907 1 127.4182636836 21.1978571429 51.8097000000
908 2 129.6324493979 21.1978571429 52.7592000000
909 1 130.7395422550 19.2803571429 51.8097000000
910 2 126.3112761836 19.2803571429 48.6232000000
911 1 127.4182636836 21.1978571429 49.5727000000
912 2 129.6324493979 21.1978571429 48.6232000000
913 1 130.7395422550 19.2803571429 49.5727000000
914 2 0.1053571429 23.1153571429 52.7592000000
915 1 1.2124500000 25.0328571429 51.8097000000
916 2 3.4265303571 25.0328571429 52.7592000000
917 1 4.5336232143 23.1153571429 51.8097000000
918 2 0.1053571429 23.1153571429 48.6232000000
919 1 1.2124500000 25.0328571429 49.5727000000
920 2 3.4265303571 25.0328571429 48.6232000000
921 1 4.5336232143 23.1153571429 49.5727000000
922 2 0.1053571429 26.9503571429 52.7592000000
923 1 1.2124500000 28.8678571429 51.8097000000
924 1 4.5336232143 26.9503571429 51.8097000000
925 2 0.1053571429 26.9503571429 48.6232000000
926 1 1.2124500000 28.8678571429 49.5727000000
927 2 3.4265303571 28.8678571429 48.6232000000
928 1 4.5336232143 26.9503571429 49.5727000000
929 2 6.7478089286 23.1153571429 52.7592000000
930 1 7.8547964286 25.0328571429 51.8097000000
931 2 10.0689821429 25.0328571429 52.7592000000
932 1 11.1760750000 23.1153571429 51.8097000000
933 2 6.7478089286 23.1153571429 48.6232000000
934 1 7.8547964286 25.0328571429 49.5727000000
935 2 10.0689821429 25.0328571429 48.6232000000
936 1 11.1760750000 23.1153571429 49.5727000000
937 2 6.7478089286 26.9503571429 52.7592000000
938 1 7.8547964286 28.8678571429 51.8097000000
939 2 10.0689821429 28.8678571429 52.7592000000
940 1 11.1760750000 26.9503571429 51.8097000000
941 2 6.7478089286 26.9503571429 48.6232000000
942 1 7.8547964286 28.8678571429 49.5727000000
943 1 11.1760750000 26.9503571429 49.5727000000
944 2 13.3901868379 23.1153571429 52.7592000000
945 1 14.4972796950 25.0328571429 51.8097000000
946 2 16.7113600521 25.0328571429 52.7592000000
947 1 17.8184529093 23.1153571429 51.8097000000
948 2 13.3901868379 23.1153571429 48.6232000000
949 1 14.4972796950 25.0328571429 49.5727000000
950 2 16.7113600521 25.0328571429 48.6232000000
951 1 17.8184529093 23.1153571429 49.5727000000
952 2 13.3901868379 26.9503571429 52.7592000000
953 1 14.4972796950 28.8678571429 51.8097000000
954 2 16.7113600521 28.8678571429 52.7592000000
955 1 17.8184529093 26.9503571429 51.8097000000
956 2 13.3901868379 26.9503571429 48.6232000000
957 1 14.4972796950 28.8678571429 49.5727000000
958 1 17.8184529093 26.9503571429 49.5727000000
959 2 20.0326386236 23.1153571429 52.7592000000
960 1 21.1396261236 25.0328571429 51.8097000000
961 2 23.3538118379 25.0328571429 52.7592000000
962 1 24.4609046950 23.1153571429 51.8097000000
963 1 21.1396261236 25.0328571429 49.5727000000
964 2 23.3538118379 25.0328571429 48.6232000000
965 1 24.4609046950 23.1153571429 49.5727000000
966 2 20.0326386236 26.9503571429 52.7592000000
967 1 21.1396261236 28.8678571429 51.8097000000
968 1 24.4609046950 26.9503571429 51.8097000000
969 2 20.0326386236 26.9503571429 48.6232000000
970 1 21.1396261236 28.8678571429 49.5727000000
971 2 23.3538118379 28.8678571429 48.6232000000
972 1 24.4609046950 26.9503571429 49.5727000000
973 2 26.6750165329 23.1153571429 52.7592000000
974 1 27.7821093900 25.0328571429 51.8097000000
975 1 31.1032826043 23.1153571429 51.8097000000
976 2 26.6750165329 23.1153571429 48.6232000000
977 1 27.7821093900 25.0328571429 49.5727000000
978 2 29.9961897471 25.0328571429 48.6232000000
979 1 31.1032826043 23.1153571429 49.5727000000
980 2 26.6750165329 26.9503571429 52.7592000000
981 1 27.7821093900 28.8678571429 51.8097000000
982 2 29.9961897471 28.8678571429 52.7592000000
983 1 31.1032826043 26.9503571429 51.8097000000
984 2 26.6750165329 26.9503571429 48.6232000000
985 1 27.7821093900 28.8678571429 49.5727000000
986 2 29.9961897471 28.8678571429 48.6232000000
987 1 31.1032826043 26.9503571429 49.5727000000
988 2 33.3174683186 23.1153571429 52.7592000000
989 1 34.4244558186 25.0328571429 51.8097000000
990 2 36.6386415329 25.0328571429 52.7592000000
991 1 37.7457343900 23.1153571429 51.8097000000
992 2 33.3174683186 23.1153571429 48.6232000000
993 1 34.4244558186 25.0328571429 49.5727000000
994 2 36.6386415329 25.0328571429 48.6232000000
995 1 37.7457343900 23.1153571429 49.5727000000
996 2 33.3174683186 26.9503571429 52.7592000000
997 1 34.4244558186 28.8678571429 51.8097000000
998 2 36.6386415329 28.8678571429 52.7592000000
999 1 37.7457343900 26.9503571429 51.8097000000
1000 2 33.3174683186 26.9503571429 48.6232000000
1001 1 34.4244558186 28.8678571429 49.5727000000
1002 2 36.6386415329 28.8678571429 48.6232000000
1003 1 37.7457343900 26.9503571429 49.5727000000
1004 1 41.0669390850 25.0328571429 51.8097000000
1005 2 43.2810194421 25.0328571429 52.7592000000
1006 1 44.3881122993 23.1153571429 51.8097000000
1007 2 39.9598462279 23.1153571429 48.6232000000
1008 1 41.0669390850 25.0328571429 49.5727000000
1009 2 43.2810194421 25.0328571429 48.6232000000
1010 1 44.3881122993 23.1153571429 49.5727000000
1011 2 39.9598462279 26.9503571429 52.7592000000
1012 1 41.0669390850 28.8678571429 51.8097000000
1013 2 43.2810194421 28.8678571429 52.7592000000
1014 1 44.3881122993 26.9503571429 51.8097000000
1015 2 39.9598462279 26.9503571429 48.6232000000
1016 1 41.0669390850 28.8678571429 49.5727000000
1017 1 44.3881122993 26.9503571429 49.5727000000
1018 2 46.6022980136 23.1153571429 52.7592000000
1019 1 47.7092855136 25.0328571429 51.8097000000
1020 2 49.9234712279 25.0328571429 52.7592000000
1021 1 51.0305640850 23.1153571429 51.8097000000
1022 2 46.6022980136 23.1153571429 48.6232000000
1023 1 47.7092855136 25.0328571429 49.5727000000
1024 2 49.9234712279 25.0328571429 48.6232000000
1025 1 51.0305640850 23.1153571429 49.5727000000
1026 2 46.6022980136 26.9503571429 52.7592000000
1027 1 47.7092855136 28.8678571429 51.8097000000
1028 1 51.0305640850 26.9503571429 51.8097000000
1029 2 46.6022980136 26.9503571429 48.6232000000
1030 1 47.7092855136 28.8678571429 49.5727000000
1031 2 49.9234712279 28.8678571429 48.6232000000
1032 1 51.0305640850 26.9503571429 49.5727000000
1033 1 54.3517687800 25.0328571429 51.8097000000
1034 2 56.5658491371 25.0328571429 52.7592000000
1035 1 57.6729419943 23.1153571429 51.8097000000
1036 2 53.2446759229 23.1153571429 48.6232000000
1037 1 54.3517687800 25.0328571429 49.5727000000
1038 2 56.5658491371 25.0328571429 48.6232000000
1039 1 57.6729419943 23.1153571429 49.5727000000
1040 2 53.2446759229 26.9503571429 52.7592000000
1041 1 54.3517687800 28.8678571429 51.8097000000
1042 2 56.5658491371 28.8678571429 52.7592000000
1043 1 57.6729419943 26.9503571429 51.8097000000
1044 2 53.2446759229 26.9503571429 48.6232000000
1045 1 54.3517687800 28.8678571429 49.5727000000
1046 1 57.6729419943 26.9503571429 49.5727000000
1047 1 60.9941152086 25.0328571429 51.8097000000
1048 2 63.2083009229 25.0328571429 52.7592000000
1049 1 64.3153937800 23.1153571429 51.8097000000
1050 2 59.8871277086 23.1153571429 48.6232000000
1051 1 60.9941152086 25.0328571429 49.5727000000
1052 2 63.2083009229 25.0328571429 48.6232000000
1053 1 64.3153937800 23.1153571429 49.5727000000
1054 2 59.8871277086 26.9503571429 52.7592000000
1055 1 60.9941152086 28.8678571429 51.8097000000
1056 2 63.2083009229 28.8678571429 52.7592000000
1057 1 64.3153937800 26.9503571429 51.8097000000
1058 2 59.8871277086 26.9503571429 48.6232000000
1059 1 60.9941152086 28.8678571429 49.5727000000
1060 1 64.3153937800 26.9503571429 49.5727000000
1061 2 66.5295056179 23.1153571429 52.7592000000
1062 1 67.6365984750 25.0328571429 51.8097000000
1063 2 69.8506788321 25.0328571429 52.7592000000
1064 1 70.9577716893 23.1153571429 51.8097000000
1065 1 67.6365984750 25.0328571429 49.5727000000
1066 2 69.8506788321 25.0328571429 48.6232000000
1067 1 70.9577716893 23.1153571429 49.5727000000
1068 2 66.5295056179 26.9503571429 52.7592000000
1069 1 67.6365984750 28.8678571429 51.8097000000
1070 2 69.8506788321 28.8678571429 52.7592000000
1071 1 70.9577716893 26.9503571429 51.8097000000
1072 2 66.5295056179 26.9503571429 48.6232000000
1073 1 67.6365984750 28.8678571429 49.5727000000
1074 2 69.8506788321 28.8678571429 48.6232000000
1075 1 70.9577716893 26.9503571429 49.5727000000
1076 2 73.1719574036 23.1153571429 52.7592000000
1077 1 74.2789449036 25.0328571429 51.8097000000
1078 2 76.4931306179 25.0328571429 52.7592000000
1079 1 77.6002234750 23.1153571429 51.8097000000
1080 2 73.1719574036 23.1153571429 48.6232000000
1081 1 74.2789449036 25.0328571429 49.5727000000
1082 2 76.4931306179 25.0328571429 48.6232000000
1083 1 77.6002234750 23.1153571429 49.5727000000
1084 1 74.2789449036 28.8678571429 51.8097000000
1085 2 76.4931306179 28.8678571429 52.7592000000
1086 1 77.6002234750 26.9503571429 51.8097000000
1087 2 73.1719574036 26.9503571429 48.6232000000
1088 1 74.2789449036 28.8678571429 49.5727000000
1089 2 76.4931306179 28.8678571429 48.6232000000
1090 1 77.6002234750 26.9503571429 49.5727000000
1091 2 79.8143353129 23.1153571429 52.7592000000
1092 1 80.9214281700 25.0328571429 51.8097000000
1093 2 83.1355085271 25.0328571429 52.7592000000
1094 1 84.2426013843 23.1153571429 51.8097000000
1095 2 79.8143353129 23.1153571429 48.6232000000
1096 1 80.9214281700 25.0328571429 49.5727000000
1097 2 83.1355085271 25.0328571429 48.6232000000
1098 1 84.2426013843 23.1153571429 49.5727000000
1099 2 79.8143353129 26.9503571429 52.7592000000
1100 1 80.9214281700 28.8678571429 51.8097000000
1101 2 83.1355085271 28.8678571429 52.7592000000
1102 1 84.2426013843 26.9503571429 51.8097000000
1103 2 79.8143353129 26.9503571429 48.6232000000
1104 1 80.9214281700 28.8678571429 49.5727000000
1105 1 84.2426013843 26.9503571429 49.5727000000
1106 2 86.4567870986 23.1153571429 52.7592000000
1107 1 87.5637745986 25.0328571429 51.8097000000
1108 2 89.7779603129 25.0328571429 52.7592000000
1109 1 90.8850531700 23.1153571429 51.8097000000
1110 2 86.4567870986 23.1153571429 48.6232000000
1111 1 87.5637745986 25.0328571429 49.5727000000
1112 2 89.7779603129 25.0328571429 48.6232000000
1113 1 90.8850531700 23.1153571429 49.5727000000
1114 2 86.4567870986 26.9503571429 52.7592000000
1115 1 87.5637745986 28.8678571429 51.8097000000
1116 2 89.7779603129 28.8678571429 52.7592000000
1117 1 90.8850531700 26.9503571429 51.8097000000
1118 2 86.4567870986 26.9503571429 48.6232000000
1119 1 87.5637745986 28.8678571429 49.5727000000
1120 2 89.7779603129 28.8678571429 48.6232000000
1121 1 90.8850531700 26.9503571429 49.5727000000
1122 2 93.0991650079 23.1153571429 52.7592000000
1123 1 94.2062578650 25.0328571429 51.8097000000
1124 2 96.4203382221 25.0328571429 52.7592000000
1125 1 97.5274310793 23.1153571429 51.8097000000
1126 2 93.0991650079 23.1153571429 48.6232000000
1127 1 94.2062578650 25.0328571429 49.5727000000
1128 2 96.4203382221 25.0328571429 48.6232000000
1129 1 97.5274310793 23.1153571429 49.5727000000
1130 2 93.0991650079 26.9503571429 52.7592000000
1131 1 94.2062578650 28.8678571429 51.8097000000
1132 2 96.4203382221 28.8678571429 52.7592000000
1133 1 97.5274310793 26.9503571429 51.8097000000
1134 2 93.0991650079 26.9503571429 48.6232000000
1135 1 94.2062578650 28.8678571429 49.5727000000
1136 2 96.4203382221 28.8678571429 48.6232000000
1137 1 97.5274310793 26.9503571429 49.5727000000
1138 2 99.7416167936 23.1153571429 52.7592000000
1139 1 100.8486042936 25.0328571429 51.8097000000
1140 2 103.0627900079 25.0328571429 52.7592000000
1141 1 104.1698828650 23.1153571429 51.8097000000
1142 2 99.7416167936 23.1153571429 48.6232000000
1143 1 100.8486042936 25.0328571429 49.5727000000
1144 2 103.0627900079 25.0328571429 48.6232000000
1145 1 104.1698828650 23.1153571429 49.5727000000
1146 2 99.7416167936 26.9503571429 52.7592000000
1147 1 100.8486042936 28.8678571429 51.8097000000
1148 2 103.0627900079 28.8678571429 52.7592000000
1149 1 104.1698828650 26.9503571429 51.8097000000
1150 1 100.8486042936 28.8678571429 49.5727000000
1151 2 103.0627900079 28.8678571429 48.6232000000
1152 1 104.1698828650 26.9503571429 49.5727000000
1153 2 106.3839947029 23.1153571429 52.7592000000
1154 1 107.4910875600 25.0328571429 51.8097000000
1155 2 109.7051679171 25.0328571429 52.7592000000
1156 1 110.8122607743 23.1153571429 51.8097000000
1157 2 106.3839947029 23.1153571429 48.6232000000
1158 1 107.4910875600 25.0328571429 49.5727000000
1159 2 109.7051679171 25.0328571429 48.6232000000
1160 1 110.8122607743 23.1153571429 49.5727000000
1161 2 106.3839947029 26.9503571429 52.7592000000
1162 1 107.4910875600 28.8678571429 51.8097000000
1163 2 109.7051679171 28.8678571429 52.7592000000
1164 1 110.8122607743 26.9503571429 51.8097000000
1165 1 107.4910875600 28.8678571429 49.5727000000
1166 2 109.7051679171 28.8678571429 48.6232000000
1167 1 110.8122607743 26.9503571429 49.5727000000
1168 2 113.0264464886 23.1153571429 52.7592000000
1169 1 114.1334339886 25.0328571429 51.8097000000
1170 1 117.4547125600 23.1153571429 51.8097000000
1171 2 113.0264464886 23.1153571429 48.6232000000
1172 1 114.1334339886 25.0328571429 49.5727000000
1173 2 116.3476197029 25.0328571429 48.6232000000
1174 1 117.4547125600 23.1153571429 49.5727000000
1175 2 113.0264464886 26.9503571429 52.7592000000
1176 1 114.1334339886 28.8678571429 51.8097000000
1177 2 116.3476197029 28.8678571429 52.7592000000
1178 1 117.4547125600 26.9503571429 51.8097000000
1179 2 113.0264464886 26.9503571429 48.6232000000
1180 1 114.1334339886 28.8678571429 49.5727000000
1181 2 116.3476197029 28.8678571429 48.6232000000
1182 1 117.4547125600 26.9503571429 49.5727000000
1183 2 119.6688243979 23.1153571429 52.7592000000
1184 1 120.7759172550 25.0328571429 51.8097000000
1185 2 122.9899976121 25.0328571429 52.7592000000
1186 1 124.0970904693 23.1153571429 51.8097000000
1187 2 119.6688243979 23.1153571429 48.6232000000
1188 1 120.7759172550 25.0328571429 49.5727000000
1189 2 122.9899976121 25.0328571429 48.6232000000
1190 1 124.0970904693 23.1153571429 49.5727000000
1191 2 119.6688243979 26.9503571429 52.7592000000
1192 1 120.7759172550 28.8678571429 51.8097000000
1193 2 122.9899976121 28.8678571429 52.7592000000
1194 1 124.0970904693 26.9503571429 51.8097000000
1195 2 119.6688243979 26.9503571429 48.6232000000
1196 1 120.7759172550 28.8678571429 49.5727000000
1197 1 124.0970904693 26.9503571429 49.5727000000
1198 2 126.3112761836 23.1153571429 52.7592000000
1199 1 127.4182636836 25.0328571429 51.8097000000
1200 2 129.6324493979 25.0328571429 52.7592000000
1201 1 130.7395422550 23.1153571429 51.8097000000
1202 2 126.3112761836 23.1153571429 48.6232000000
1203 1 127.4182636836 25.0328571429 49.5727000000
1204 2 129.6324493979 25.0328571429 48.6232000000
1205 1 130.7395422550 23.1153571429 49.5727000000
1206 2 126.3112761836 26.9503571429 52.7592000000
1207 1 127.4182636836 28.8678571429 51.8097000000
1208 1 130.7395422550 26.9503571429 51.8097000000
1209 2 126.3112761836 26.9503571429 48.6232000000
1210 1 127.4182636836 28.8678571429 49.5727000000
1211 2 129.6324493979 28.8678571429 48.6232000000
1212 1 130.7395422550 26.9503571429 49.5727000000
1213 2 0.1053571429 30.7853571429 52.7592000000
1214 1 1.2124500000 32.7028571429 51.8097000000
1215 2 3.4265303571 32.7028571429 52.7592000000
1216 1 4.5336232143 30.7853571429 51.8097000000
1217 2 0.1053571429 30.7853571429 48.6232000000
1218 1 1.2124500000 32.7028571429 49.5727000000
1219 2 3.4265303571 32.7028571429 48.6232000000
1220 1 4.5336232143 30.7853571429 49.5727000000
1221 2 0.1053571429 34.6203571429 52.7592000000
1222 1 1.2124500000 36.5378571429 51.8097000000
1223 2 3.4265303571 36.5378571429 52.7592000000
1224 1 4.5336232143 34.6203571429 51.8097000000
1225 1 1.2124500000 36.5378571429 49.5727000000
1226 2 3.4265303571 36.5378571429 48.6232000000
1227 1 4.5336232143 34.6203571429 49.5727000000
1228 2 6.7478089286 30.7853571429 52.7592000000
1229 1 7.8547964286 32.7028571429 51.8097000000
1230 2 10.0689821429 32.7028571429 52.7592000000
1231 1 11.1760750000 30.7853571429 51.8097000000
1232 2 6.7478089286 30.7853571429 48.6232000000
1233 1 7.8547964286 32.7028571429 49.5727000000
1234 2 10.0689821429 32.7028571429 48.6232000000
1235 1 11.1760750000 30.7853571429 49.5727000000
1236 2 6.7478089286 34.6203571429 52.7592000000
1237 1 7.8547964286 36.5378571429 51.8097000000
1238 2 10.0689821429 36.5378571429 52.7592000000
1239 1 11.1760750000 34.6203571429 51.8097000000
1240 2 6.7478089286 34.6203571429 48.6232000000
1241 1 7.8547964286 36.5378571429 49.5727000000
1242 2 10.0689821429 36.5378571429 48.6232000000
1243 1 11.1760750000 34.6203571429 49.5727000000
1244 2 13.3901868379 30.7853571429 52.7592000000
1245 1 14.4972796950 32.7028571429 51.8097000000
1246 2 16.7113600521 32.7028571429 52.7592000000
1247 1 17.8184529093 30.7853571429 51.8097000000
1248 2 13.3901868379 30.7853571429 48.6232000000
1249 1 14.4972796950 32.7028571429 49.5727000000
1250 2 16.7113600521 32.7028571429 48.6232000000
1251 1 17.8184529093 30.7853571429 49.5727000000
1252 1 14.4972796950 36.5378571429 51.8097000000
1253 2 16.7113600521 36.5378571429 52.7592000000
1254 1 17.8184529093 34.6203571429 51.8097000000
1255 2 13.3901868379 34.6203571429 48.6232000000
1256 1 14.4972796950 36.5378571429 49.5727000000
1257 2 16.7113600521 36.5378571429 48.6232000000
1258 1 17.8184529093 34.6203571429 49.5727000000
1259 2 20.0326386236 30.7853571429 52.7592000000
1260 1 21.1396261236 32.7028571429 51.8097000000
1261 2 23.3538118379 32.7028571429 52.7592000000
1262 1 24.4609046950 30.7853571429 51.8097000000
1263 2 20.0326386236 30.7853571429 48.6232000000
1264 1 21.1396261236 32.7028571429 49.5727000000
1265 2 23.3538118379 32.7028571429 48.6232000000
1266 1 24.4609046950 30.7853571429 49.5727000000
1267 2 20.0326386236 34.6203571429 52.7592000000
1268 1 21.1396261236 36.5378571429 51.8097000000
1269 2 23.3538118379 36.5378571429 52.7592000000
1270 1 24.4609046950 34.6203571429 51.8097000000
1271 2 20.0326386236 34.6203571429 48.6232000000
1272 1 21.1396261236 36.5378571429 49.5727000000
1273 2 23.3538118379 36.5378571429 48.6232000000
1274 1 24.4609046950 34.6203571429 49.5727000000
1275 2 26.6750165329 30.7853571429 52.7592000000
1276 1 27.7821093900 32.7028571429 51.8097000000
1277 2 29.9961897471 32.7028571429 52.7592000000
1278 1 31.1032826043 30.7853571429 51.8097000000
1279 2 26.6750165329 30.7853571429 48.6232000000
1280 1 27.7821093900 32.7028571429 49.5727000000
1281 2 29.9961897471 32.7028571429 48.6232000000
1282 1 31.1032826043 30.7853571429 49.5727000000
1283 2 26.6750165329 34.6203571429 52.7592000000
1284 1 27.7821093900 36.5378571429 51.8097000000
1285 2 29.9961897471 36.5378571429 52.7592000000
1286 1 31.1032826043 34.6203571429 51.8097000000
1287 2 26.6750165329 34.6203571429 48.6232000000
1288 1 27.7821093900 36.5378571429 49.5727000000
1289 2 29.9961897471 36.5378571429 48.6232000000
1290 1 31.1032826043 34.6203571429 49.5727000000
1291 2 33.3174683186 30.7853571429 52.7592000000
1292 1 34.4244558186 32.7028571429 51.8097000000
1293 2 36.6386415329 32.7028571429 52.7592000000
1294 1 37.7457343900 30.7853571429 51.8097000000
1295 2 33.3174683186 30.7853571429 48.6232000000
1296 1 34.4244558186 32.7028571429 49.5727000000
1297 1 37.7457343900 30.7853571429 49.5727000000
1298 2 33.3174683186 34.6203571429 52.7592000000
1299 1 34.4244558186 36.5378571429 51.8097000000
1300 2 36.6386415329 36.5378571429 52.7592000000
1301 1 37.7457343900 34.6203571429 51.8097000000
1302 2 33.3174683186 34.6203571429 48.6232000000
1303 1 34.4244558186 36.5378571429 49.5727000000
1304 2 36.6386415329 36.5378571429 48.6232000000
1305 1 37.7457343900 34.6203571429 49.5727000000
1306 2 39.9598462279 30.7853571429 52.7592000000
1307 1 41.0669390850 32.7028571429 51.8097000000
1308 2 43.2810194421 32.7028571429 52.7592000000
1309 1 44.3881122993 30.7853571429 51.8097000000
1310 2 39.9598462279 30.7853571429 48.6232000000
1311 1 41.0669390850 32.7028571429 49.5727000000
1312 2 43.2810194421 32.7028571429 48.6232000000
1313 1 44.3881122993 30.7853571429 49.5727000000
1314 2 39.9598462279 34.6203571429 52.7592000000
1315 1 41.0669390850 36.5378571429 51.8097000000
1316 1 44.3881122993 34.6203571429 51.8097000000
1317 2 39.9598462279 34.6203571429 48.6232000000
1318 1 41.0669390850 36.5378571429 49.5727000000
1319 2 43.2810194421 36.5378571429 48.6232000000
1320 1 44.3881122993 34.6203571429 49.5727000000
1321 2 46.6022980136 30.7853571429 52.7592000000
1322 1 47.7092855136 32.7028571429 51.8097000000
1323 2 49.9234712279 32.7028571429 52.7592000000
1324 1 51.0305640850 30.7853571429 51.8097000000
1325 2 46.6022980136 30.7853571429 48.6232000000
1326 1 47.7092855136 32.7028571429 49.5727000000
1327 2 49.9234712279 32.7028571429 48.6232000000
1328 1 51.0305640850 30.7853571429 49.5727000000
1329 2 46.6022980136 34.6203571429 52.7592000000
1330 1 47.7092855136 36.5378571429 51.8097000000
1331 1 51.0305640850 34.6203571429 51.8097000000
1332 2 46.6022980136 34.6203571429 48.6232000000
1333 1 47.7092855136 36.5378571429 49.5727000000
1334 2 49.9234712279 36.5378571429 48.6232000000
1335 1 51.0305640850 34.6203571429 49.5727000000
1336 2 53.2446759229 30.7853571429 52.7592000000
1337 1 54.3517687800 32.7028571429 51.8097000000
1338 2 56.5658491371 32.7028571429 52.7592000000
1339 1 57.6729419943 30.7853571429 51.8097000000
1340 2 53.2446759229 30.7853571429 48.6232000000
1341 1 54.3517687800 32.7028571429 49.5727000000
1342 2 56.5658491371 32.7028571429 48.6232000000
1343 1 57.6729419943 30.7853571429 49.5727000000
1344 2 53.2446759229 34.6203571429 52.7592000000
1345 1 54.3517687800 36.5378571429 51.8097000000
1346 2 56.5658491371 36.5378571429 52.7592000000
1347 1 57.6729419943 34.6203571429 51.8097000000
1348 2 53.2446759229 34.6203571429 48.6232000000
1349 1 54.3517687800 36.5378571429 49.5727000000
1350 2 56.5658491371 36.5378571429 48.6232000000
1351 1 57.6729419943 34.6203571429 49.5727000000
1352 2 59.8871277086 30.7853571429 52.7592000000
1353 1 60.9941152086 32.7028571429 51.8097000000
1354 2 63.2083009229 32.7028571429 52.7592000000
1355 1 64.3153937800 30.7853571429 51.8097000000
1356 2 59.8871277086 30.7853571429 48.6232000000
1357 1 60.9941152086 32.7028571429 49.5727000000
1358 2 63.2083009229 32.7028571429 48.6232000000
1359 1 64.3153937800 30.7853571429 49.5727000000
1360 2 59.8871277086 34.6203571429 52.7592000000
1361 1 60.9941152086 36.5378571429 51.8097000000
1362 2 63.2083009229 36.5378571429 52.7592000000
1363 1 64.3153937800 34.6203571429 51.8097000000
1364 1 60.9941152086 36.5378571429 49.5727000000
1365 2 63.2083009229 36.5378571429 48.6232000000
1366 1 64.3153937800 34.6203571429 49.5727000000
1367 2 66.5295056179 30.7853571429 52.7592000000
1368 1 67.6365984750 32.7028571429 51.8097000000
1369 2 69.8506788321 32.7028571429 52.7592000000
1370 1 70.9577716893 30.7853571429 51.8097000000
1371 2 66.5295056179 30.7853571429 48.6232000000
1372 1 67.6365984750 32.7028571429 49.5727000000
1373 2 69.8506788321 32.7028571429 48.6232000000
1374 1 70.9577716893 30.7853571429 49.5727000000
1375 2 66.5295056179 34.6203571429 52.7592000000
1376 1 67.6365984750 36.5378571429 51.8097000000
1377 1 70.9577716893 34.6203571429 51.8097000000
1378 2 66.5295056179 34.6203571429 48.6232000000
1379 1 67.6365984750 36.5378571429 49.5727000000
1380 2 69.8506788321 36.5378571429 48.6232000000
1381 1 70.9577716893 34.6203571429 49.5727000000
1382 2 73.1719574036 30.7853571429 52.7592000000
1383 1 74.2789449036 32.7028571429 51.8097000000
1384 2 76.4931306179 32.7028571429 52.7592000000
1385 1 77.6002234750 30.7853571429 51.8097000000
1386 2 73.1719574036 30.7853571429 48.6232000000
1387 1 74.2789449036 32.7028571429 49.5727000000
1388 1 77.6002234750 30.7853571429 49.5727000000
1389 2 73.1719574036 34.6203571429 52.7592000000
1390 1 74.2789449036 36.5378571429 51.8097000000
1391 2 76.4931306179 36.5378571429 52.7592000000
1392 1 77.6002234750 34.6203571429 51.8097000000
1393 2 73.1719574036 34.6203571429 48.6232000000
1394 1 74.2789449036 36.5378571429 49.5727000000
1395 2 76.4931306179 36.5378571429 48.6232000000
1396 1 77.6002234750 34.6203571429 49.5727000000
1397 2 79.8143353129 30.7853571429 52.7592000000
1398 1 80.9214281700 32.7028571429 51.8097000000
1399 2 83.1355085271 32.7028571429 52.7592000000
1400 1 84.2426013843 30.7853571429 51.8097000000
1401 2 79.8143353129 30.7853571429 48.6232000000
1402 1 80.9214281700 32.7028571429 49.5727000000
1403 2 83.1355085271 32.7028571429 48.6232000000
1404 1 84.2426013843 30.7853571429 49.5727000000
1405 2 79.8143353129 34.6203571429 52.7592000000
1406 1 80.9214281700 36.5378571429 51.8097000000
1407 1 84.2426013843 34.6203571429 51.8097000000
1408 2 79.8143353129 34.6203571429 48.6232000000
1409 1 80.9214281700 36.5378571429 49.5727000000
1410 2 83.1355085271 36.5378571429 48.6232000000
1411 1 84.2426013843 34.6203571429 49.5727000000
1412 2 86.4567870986 30.7853571429 52.7592000000
1413 1 87.5637745986 32.7028571429 51.8097000000
1414 2 89.7779603129 32.7028571429 52.7592000000
1415 1 90.8850531700 30.7853571429 51.8097000000
1416 2 86.4567870986 30.7853571429 48.6232000000
1417 1 87.5637745986 32.7028571429 49.5727000000
1418 2 89.7779603129 32.7028571429 48.6232000000
1419 1 90.8850531700 30.7853571429 49.5727000000
1420 2 86.4567870986 34.6203571429 52.7592000000
1421 1 87.5637745986 36.5378571429 51.8097000000
1422 2 89.7779603129 36.5378571429 52.7592000000
1423 1 90.8850531700 34.6203571429 51.8097000000
1424 2 86.4567870986 34.6203571429 48.6232000000
1425 1 87.5637745986 36.5378571429 49.5727000000
1426 2 89.7779603129 36.5378571429 48.6232000000
1427 1 90.8850531700 34.6203571429 49.5727000000
1428 1 94.2062578650 32.7028571429 51.8097000000
1429 2 96.4203382221 32.7028571429 52.7592000000
1430 1 97.5274310793 30.7853571429 51.8097000000
1431 2 93.0991650079 30.7853571429 48.6232000000
1432 1 94.2062578650 32.7028571429 49.5727000000
1433 2 96.4203382221 32.7028571429 48.6232000000
1434 1 97.5274310793 30.7853571429 49.5727000000
1435 2 93.0991650079 34.6203571429 52.7592000000
1436 1 94.2062578650 36.5378571429 51.8097000000
1437 2 96.4203382221 36.5378571429 52.7592000000
1438 1 97.5274310793 34.6203571429 51.8097000000
1439 2 93.0991650079 34.6203571429 48.6232000000
1440 1 94.2062578650 36.5378571429 49.5727000000
1441 2 96.4203382221 36.5378571429 48.6232000000
1442 1 97.5274310793 34.6203571429 49.5727000000
1443 2 99.7416167936 30.7853571429 52.7592000000
1444 1 100.8486042936 32.7028571429 51.8097000000
1445 2 103.0627900079 32.7028571429 52.7592000000
1446 1 104.1698828650 30.7853571429 51.8097000000
1447 2 99.7416167936 30.7853571429 48.6232000000
1448 1 100.8486042936 32.7028571429 49.5727000000
1449 2 103.0627900079 32.7028571429 48.6232000000
1450 1 104.1698828650 30.7853571429 49.5727000000
1451 1 100.8486042936 36.5378571429 51.8097000000
1452 2 103.0627900079 36.5378571429 52.7592000000
1453 1 104.1698828650 34.6203571429 51.8097000000
1454 2 99.7416167936 34.6203571429 48.6232000000
1455 1 100.8486042936 36.5378571429 49.5727000000
1456 2 103.0627900079 36.5378571429 48.6232000000
1457 1 104.1698828650 34.6203571429 49.5727000000
1458 2 106.3839947029 30.7853571429 52.7592000000
1459 1 107.4910875600 32.7028571429 51.8097000000
1460 1 110.8122607743 30.7853571429 51.8097000000
1461 2 106.3839947029 30.7853571429 48.6232000000
1462 1 107.4910875600 32.7028571429 49.5727000000
1463 2 109.7051679171 32.7028571429 48.6232000000
1464 1 110.8122607743 30.7853571429 49.5727000000
1465 2 106.3839947029 34.6203571429 52.7592000000
1466 1 107.4910875600 36.5378571429 51.8097000000
1467 2 109.7051679171 36.5378571429 52.7592000000
1468 1 110.8122607743 34.6203571429 51.8097000000
1469 2 106.3839947029 34.6203571429 48.6232000000
1470 1 107.4910875600 36.5378571429 49.5727000000
1471 2 109.7051679171 36.5378571429 48.6232000000
1472 1 110.8122607743 34.6203571429 49.5727000000
1473 2 113.0264464886 30.7853571429 52.7592000000
1474 1 114.1334339886 32.7028571429 51.8097000000
1475 2 116.3476197029 32.7028571429 52.7592000000
1476 1 117.4547125600 30.7853571429 51.8097000000
1477 2 113.0264464886 30.7853571429 48.6232000000
1478 1 114.1334339886 32.7028571429 49.5727000000
1479 2 116.3476197029 32.7028571429 48.6232000000
1480 1 117.4547125600 30.7853571429 49.5727000000
1481 2 113.0264464886 34.6203571429 52.7592000000
1482 1 114.1334339886 36.5378571429 51.8097000000
1483 2 116.3476197029 36.5378571429 52.7592000000
1484 1 117.4547125600 34.6203571429 51.8097000000
1485 2 113.0264464886 34.6203571429 48.6232000000
1486 1 114.1334339886 36.5378571429 49.5727000000
1487 2 116.3476197029 36.5378571429 48.6232000000
1488 1 117.4547125600 34.6203571429 49.5727000000
1489 2 119.6688243979 30.7853571429 52.7592000000
1490 1 120.7759172550 32.7028571429 51.8097000000
1491 2 122.9899976121 32.7028571429 52.7592000000
1492 1 124.0970904693 30.7853571429 51.8097000000
1493 2 119.6688243979 30.7853571429 48.6232000000
1494 1 120.7759172550 32.7028571429 49.5727000000
1495 2 122.9899976121 32.7028571429 48.6232000000
1496 1 124.0970904693 30.7853571429 49.5727000000
1497 1 120.7759172550 36.5378571429 51.8097000000
1498 2 122.9899976121 36.5378571429 52.7592000000
1499 1 124.0970904693 34.6203571429 51.8097000000
1500 2 119.6688243979 34.6203571429 48.6232000000
1501 1 120.7759172550 36.5378571429 49.5727000000
1502 2 122.9899976121 36.5378571429 48.6232000000
1503 1 124.0970904693 34.6203571429 49.5727000000
1504 2 126.3112761836 30.7853571429 52.7592000000
1505 1 127.4182636836 32.7028571429 51.8097000000
1506 2 129.6324493979 32.7028571429 52.7592000000
1507 1 130.7395422550 30.7853571429 51.8097000000
1508 2 126.3112761836 30.7853571429 48.6232000000
1509 1 127.4182636836 32.7028571429 49.5727000000
1510 2 129.6324493979 32.7028571429 48.6232000000
1511 1 130.7395422550 30.7853571429 49.5727000000
1512 2 126.3112761836 34.6203571429 52.7592000000
1513 1 127.4182636836 36.5378571429 51.8097000000
1514 2 129.6324493979 36.5378571429 52.7592000000
1515 1 130.7395422550 34.6203571429 51.8097000000
1516 1 127.4182636836 36.5378571429 49.5727000000
1517 2 129.6324493979 36.5378571429 48.6232000000
1518 1 130.7395422550 34.6203571429 49.5727000000
1519 2 0.1053571429 38.4553571429 52.7592000000
1520 1 1.2124500000 40.3728571429 51.8097000000
1521 1 4.5336232143 38.4553571429 51.8097000000
1522 2 0.1053571429 38.4553571429 48.6232000000
1523 1 1.2124500000 40.3728571429 49.5727000000
1524 2 3.4265303571 40.3728571429 48.6232000000
1525 1 4.5336232143 38.4553571429 49.5727000000
1526 2 0.1053571429 42.2903571429 52.7592000000
1527 1 1.2124500000 44.2078571429 51.8097000000
1528 2 3.4265303571 44.2078571429 52.7592000000
1529 1 4.5336232143 42.2903571429 51.8097000000
1530 2 0.1053571429 42.2903571429 48.6232000000
1531 1 1.2124500000 44.2078571429 49.5727000000
1532 2 3.4265303571 44.2078571429 48.6232000000
1533 1 4.5336232143 42.2903571429 49.5727000000
1534 2 6.7478089286 38.4553571429 52.7592000000
1535 1 7.8547964286 40.3728571429 51.8097000000
1536 2 10.0689821429 40.3728571429 52.7592000000
1537 1 11.1760750000 38.4553571429 51.8097000000
1538 2 6.7478089286 38.4553571429 48.6232000000
1539 1 7.8547964286 40.3728571429 49.5727000000
1540 2 10.0689821429 40.3728571429 48.6232000000
1541 1 11.1760750000 38.4553571429 49.5727000000
1542 2 6.7478089286 42.2903571429 52.7592000000
1543 1 7.8547964286 44.2078571429 51.8097000000
1544 2 10.0689821429 44.2078571429 52.7592000000
1545 1 11.1760750000 42.2903571429 51.8097000000
1546 2 6.7478089286 42.2903571429 48.6232000000
1547 1 7.8547964286 44.2078571429 49.5727000000
1548 2 10.0689821429 44.2078571429 48.6232000000
1549 1 11.1760750000 42.2903571429 49.5727000000
1550 2 13.3901868379 38.4553571429 52.7592000000
1551 1 14.4972796950 40.3728571429 51.8097000000
1552 2 16.7113600521 40.3728571429 52.7592000000
1553 1 17.8184529093 38.4553571429 51.8097000000
1554 2 13.3901868379 38.4553571429 48.6232000000
1555 1 14.4972796950 40.3728571429 49.5727000000
1556 2 16.7113600521 40.3728571429 48.6232000000
1557 1 17.8184529093 38.4553571429 49.5727000000
1558 2 13.3901868379 42.2903571429 52.7592000000
1559 1 14.4972796950 44.2078571429 51.8097000000
1560 2 16.7113600521 44.2078571429 52.7592000000
1561 1 17.8184529093 42.2903571429 51.8097000000
1562 1 14.4972796950 44.2078571429 49.5727000000
1563 2 16.7113600521 44.2078571429 48.6232000000
1564 1 17.8184529093 42.2903571429 49.5727000000
1565 2 20.0326386236 38.4553571429 52.7592000000
1566 1 21.1396261236 40.3728571429 51.8097000000
1567 2 23.3538118379 40.3728571429 52.7592000000
1568 1 24.4609046950 38.4553571429 51.8097000000
1569 1 21.1396261236 40.3728571429 49.5727000000
1570 2 23.3538118379 40.3728571429 48.6232000000
1571 1 24.4609046950 38.4553571429 49.5727000000
1572 2 20.0326386236 42.2903571429 52.7592000000
1573 1 21.1396261236 44.2078571429 51.8097000000
1574 2 23.3538118379 44.2078571429 52.7592000000
1575 1 24.4609046950 42.2903571429 51.8097000000
1576 2 20.0326386236 42.2903571429 48.6232000000
1577 1 21.1396261236 44.2078571429 49.5727000000
1578 2 23.3538118379 44.2078571429 48.6232000000
1579 1 24.4609046950 42.2903571429 49.5727000000
1580 1 27.7821093900 40.3728571429 51.8097000000
1581 2 29.9961897471 40.3728571429 52.7592000000
1582 1 31.1032826043 38.4553571429 51.8097000000
1583 2 26.6750165329 38.4553571429 48.6232000000
1584 1 27.7821093900 40.3728571429 49.5727000000
1585 2 29.9961897471 40.3728571429 48.6232000000
1586 1 31.1032826043 38.4553571429 49.5727000000
1587 2 26.6750165329 42.2903571429 52.7592000000
1588 1 27.7821093900 44.2078571429 51.8097000000
1589 2 29.9961897471 44.2078571429 52.7592000000
1590 1 31.1032826043 42.2903571429 51.8097000000
1591 2 26.6750165329 42.2903571429 48.6232000000
1592 1 27.7821093900 44.2078571429 49.5727000000
1593 2 29.9961897471 44.2078571429 48.6232000000
1594 1 31.1032826043 42.2903571429 49.5727000000
1595 2 33.3174683186 38.4553571429 52.7592000000
1596 1 34.4244558186 40.3728571429 51.8097000000
1597 2 36.6386415329 40.3728571429 52.7592000000
1598 1 37.7457343900 38.4553571429 51.8097000000
1599 1 34.4244558186 40.3728571429 49.5727000000
1600 2 36.6386415329 40.3728571429 48.6232000000
1601 1 37.7457343900 38.4553571429 49.5727000000
1602 2 33.3174683186 42.2903571429 52.7592000000
1603 1 34.4244558186 44.2078571429 51.8097000000
1604 2 36.6386415329 44.2078571429 52.7592000000
1605 1 37.7457343900 42.2903571429 51.8097000000
1606 2 33.3174683186 42.2903571429 48.6232000000
1607 1 34.4244558186 44.2078571429 49.5727000000
1608 1 37.7457343900 42.2903571429 49.5727000000
1609 2 39.9598462279 38.4553571429 52.7592000000
1610 1 41.0669390850 40.3728571429 51.8097000000
1611 2 43.2810194421 40.3728571429 52.7592000000
1612 1 44.3881122993 38.4553571429 51.8097000000
1613 2 39.9598462279 38.4553571429 48.6232000000
1614 1 41.0669390850 40.3728571429 49.5727000000
1615 2 43.2810194421 40.3728571429 48.6232000000
1616 1 44.3881122993 38.4553571429 49.5727000000
1617 2 39.9598462279 42.2903571429 52.7592000000
1618 1 41.0669390850 44.2078571429 51.8097000000
1619 1 44.3881122993 42.2903571429 51.8097000000
1620 2 39.9598462279 42.2903571429 48.6232000000
1621 1 41.0669390850 44.2078571429 49.5727000000
1622 2 43.2810194421 44.2078571429 48.6232000000
1623 1 44.3881122993 42.2903571429 49.5727000000
1624 2 46.6022980136 38.4553571429 52.7592000000
1625 1 47.7092855136 40.3728571429 51.8097000000
1626 2 49.9234712279 40.3728571429 52.7592000000
1627 1 51.0305640850 38.4553571429 51.8097000000
1628 2 46.6022980136 38.4553571429 48.6232000000
1629 1 47.7092855136 40.3728571429 49.5727000000
1630 2 49.9234712279 40.3728571429 48.6232000000
1631 1 51.0305640850 38.4553571429 49.5727000000
1632 2 46.6022980136 42.2903571429 52.7592000000
1633 1 47.7092855136 44.2078571429 51.8097000000
1634 2 49.9234712279 44.2078571429 52.7592000000
1635 1 51.0305640850 42.2903571429 51.8097000000
1636 2 46.6022980136 42.2903571429 48.6232000000
1637 1 47.7092855136 44.2078571429 49.5727000000
1638 2 49.9234712279 44.2078571429 48.6232000000
1639 1 51.0305640850 42.2903571429 49.5727000000
1640 2 53.2446759229 38.4553571429 52.7592000000
1641 1 54.3517687800 40.3728571429 51.8097000000
1642 2 56.5658491371 40.3728571429 52.7592000000
1643 1 57.6729419943 38.4553571429 51.8097000000
1644 2 53.2446759229 38.4553571429 48.6232000000
1645 1 54.3517687800 40.3728571429 49.5727000000
1646 2 56.5658491371 40.3728571429 48.6232000000
1647 1 57.6729419943 38.4553571429 49.5727000000
1648 2 53.2446759229 42.2903571429 52.7592000000
1649 1 54.3517687800 44.2078571429 51.8097000000
1650 1 57.6729419943 42.2903571429 51.8097000000
1651 2 53.2446759229 42.2903571429 48.6232000000
1652 1 54.3517687800 44.2078571429 49.5727000000
1653 2 56.5658491371 44.2078571429 48.6232000000
1654 1 57.6729419943 42.2903571429 49.5727000000
1655 2 59.8871277086 38.4553571429 52.7592000000
1656 1 60.9941152086 40.3728571429 51.8097000000
1657 2 63.2083009229 40.3728571429 52.7592000000
1658 1 64.3153937800 38.4553571429 51.8097000000
1659 2 59.8871277086 38.4553571429 48.6232000000
1660 1 60.9941152086 40.3728571429 49.5727000000
1661 2 63.2083009229 40.3728571429 48.6232000000
1662 1 64.3153937800 38.4553571429 49.5727000000
1663 2 59.8871277086 42.2903571429 52.7592000000
1664 1 60.9941152086 44.2078571429 51.8097000000
1665 2 63.2083009229 44.2078571429 52.7592000000
1666 1 64.3153937800 42.2903571429 51.8097000000
1667 2 59.8871277086 42.2903571429 48.6232000000
1668 1 60.9941152086 44.2078571429 49.5727000000
1669 2 63.2083009229 44.2078571429 48.6232000000
1670 1 64.3153937800 42.2903571429 49.5727000000
1671 2 66.5295056179 38.4553571429 52.7592000000
1672 1 67.6365984750 40.3728571429 51.8097000000
1673 2 69.8506788321 40.3728571429 52.7592000000
1674 1 70.9577716893 38.4553571429 51.8097000000
1675 2 66.5295056179 38.4553571429 48.6232000000
1676 1 67.6365984750 40.3728571429 49.5727000000
1677 2 69.8506788321 40.3728571429 48.6232000000
1678 1 70.9577716893 38.4553571429 49.5727000000
1679 2 66.5295056179 42.2903571429 52.7592000000
1680 1 67.6365984750 44.2078571429 51.8097000000
1681 2 69.8506788321 44.2078571429 52.7592000000
1682 1 70.9577716893 42.2903571429 51.8097000000
1683 2 66.5295056179 42.2903571429 48.6232000000
1684 1 67.6365984750 44.2078571429 49.5727000000
1685 1 70.9577716893 42.2903571429 49.5727000000
1686 2 73.1719574036 38.4553571429 52.7592000000
1687 1 74.2789449036 40.3728571429 51.8097000000
1688 2 76.4931306179 40.3728571429 52.7592000000
1689 1 77.6002234750 38.4553571429 51.8097000000
1690 2 73.1719574036 38.4553571429 48.6232000000
1691 1 74.2789449036 40.3728571429 49.5727000000
1692 1 77.6002234750 38.4553571429 49.5727000000
1693 2 73.1719574036 42.2903571429 52.7592000000
1694 1 74.2789449036 44.2078571429 51.8097000000
1695 2 76.4931306179 44.2078571429 52.7592000000
1696 1 77.6002234750 42.2903571429 51.8097000000
1697 2 73.1719574036 42.2903571429 48.6232000000
1698 1 74.2789449036 44.2078571429 49.5727000000
1699 2 76.4931306179 44.2078571429 48.6232000000
1700 1 77.6002234750 42.2903571429 49.5727000000
1701 2 79.8143353129 38.4553571429 52.7592000000
1702 1 80.9214281700 40.3728571429 51.8097000000
1703 2 83.1355085271 40.3728571429 52.7592000000
1704 1 84.2426013843 38.4553571429 51.8097000000
1705 2 79.8143353129 38.4553571429 48.6232000000
1706 1 80.9214281700 40.3728571429 49.5727000000
1707 2 83.1355085271 40.3728571429 48.6232000000
1708 1 84.2426013843 38.4553571429 49.5727000000
1709 2 79.8143353129 42.2903571429 52.7592000000
1710 1 80.9214281700 44.2078571429 51.8097000000
1711 2 83.1355085271 44.2078571429 52.7592000000
1712 1 84.2426013843 42.2903571429 51.8097000000
1713 2 79.8143353129 42.2903571429 48.6232000000
1714 1 80.9214281700 44.2078571429 49.5727000000
1715 2 83.1355085271 44.2078571429 48.6232000000
1716 1 84.2426013843 42.2903571429 49.5727000000
1717 2 86.4567870986 38.4553571429 52.7592000000
1718 1 87.5637745986 40.3728571429 51.8097000000
1719 2 89.7779603129 40.3728571429 52.7592000000
1720 1 90.8850531700 38.4553571429 51.8097000000
1721 2 86.4567870986 38.4553571429 48.6232000000
1722 1 87.5637745986 40.3728571429 49.5727000000
1723 2 89.7779603129 40.3728571429 48.6232000000
1724 1 90.8850531700 38.4553571429 49.5727000000
1725 2 86.4567870986 42.2903571429 52.7592000000
1726 1 87.5637745986 44.2078571429 51.8097000000
1727 1 90.8850531700 42.2903571429 51.8097000000
1728 2 86.4567870986 42.2903571429 48.6232000000
1729 1 87.5637745986 44.2078571429 49.5727000000
1730 2 89.7779603129 44.2078571429 48.6232000000
1731 1 90.8850531700 42.2903571429 49.5727000000
1732 2 93.0991650079 38.4553571429 52.7592000000
1733 1 94.2062578650 40.3728571429 51.8097000000
1734 2 96.4203382221 40.3728571429 52.7592000000
1735 1 97.5274310793 38.4553571429 51.8097000000
1736 1 94.2062578650 40.3728571429 49.5727000000
1737 2 96.4203382221 40.3728571429 48.6232000000
1738 1 97.5274310793 38.4553571429 49.5727000000
1739 2 93.0991650079 42.2903571429 52.7592000000
1740 1 94.2062578650 44.2078571429 51.8097000000
1741 1 97.5274310793 42.2903571429 51.8097000000
1742 2 93.0991650079 42.2903571429 48.6232000000
1743 1 94.2062578650 44.2078571429 49.5727000000
1744 2 96.4203382221 44.2078571429 48.6232000000
1745 1 97.5274310793 42.2903571429 49.5727000000
1746 2 99.7416167936 38.4553571429 52.7592000000
1747 1 100.8486042936 40.3728571429 51.8097000000
1748 2 103.0627900079 40.3728571429 52.7592000000
1749 1 104.1698828650 38.4553571429 51.8097000000
1750 2 99.7416167936 38.4553571429 48.6232000000
1751 1 100.8486042936 40.3728571429 49.5727000000
1752 2 103.0627900079 40.3728571429 48.6232000000
1753 1 104.1698828650 38.4553571429 49.5727000000
1754 2 99.7416167936 42.2903571429 52.7592000000
1755 1 100.8486042936 44.2078571429 51.8097000000
1756 2 103.0627900079 44.2078571429 52.7592000000
1757 1 104.1698828650 42.2903571429 51.8097000000
1758 2 99.7416167936 42.2903571429 48.6232000000
1759 1 100.8486042936 44.2078571429 49.5727000000
1760 2 103.0627900079 44.2078571429 48.6232000000
1761 1 104.1698828650 42.2903571429 49.5727000000
1762 1 107.4910875600 40.3728571429 51.8097000000
1763 2 109.7051679171 40.3728571429 52.7592000000
1764 1 110.8122607743 38.4553571429 51.8097000000
1765 2 106.3839947029 38.4553571429 48.6232000000
1766 1 107.4910875600 40.3728571429 49.5727000000
1767 2 109.7051679171 40.3728571429 48.6232000000
1768 1 110.8122607743 38.4553571429 49.5727000000
1769 2 106.3839947029 42.2903571429 52.7592000000
1770 1 107.4910875600 44.2078571429 51.8097000000
1771 2 109.7051679171 44.2078571429 52.7592000000
1772 1 110.8122607743 42.2903571429 51.8097000000
1773 2 106.3839947029 42.2903571429 48.6232000000
1774 1 107.4910875600 44.2078571429 49.5727000000
1775 2 109.7051679171 44.2078571429 48.6232000000
1776 1 110.8122607743 42.2903571429 49.5727000000
1777 2 113.0264464886 38.4553571429 52.7592000000
1778 1 114.1334339886 40.3728571429 51.8097000000
1779 2 116.3476197029 40.3728571429 52.7592000000
1780 1 117.4547125600 38.4553571429 51.8097000000
1781 2 113.0264464886 38.4553571429 48.6232000000
1782 1 114.1334339886 40.3728571429 49.5727000000
1783 1 117.4547125600 38.4553571429 49.5727000000
1784 2 113.0264464886 42.2903571429 52.7592000000
1785 1 114.1334339886 44.2078571429 51.8097000000
1786 2 116.3476197029 44.2078571429 52.7592000000
1787 1 117.4547125600 42.2903571429 51.8097000000
1788 2 113.0264464886 42.2903571429 48.6232000000
1789 1 114.1334339886 44.2078571429 49.5727000000
1790 2 116.3476197029 44.2078571429 48.6232000000
1791 1 117.4547125600 42.2903571429 49.5727000000
1792 2 119.6688243979 38.4553571429 52.7592000000
1793 1 120.7759172550 40.3728571429 51.8097000000
1794 2 122.9899976121 40.3728571429 52.7592000000
1795 1 124.0970904693 38.4553571429 51.8097000000
1796 2 119.6688243979 38.4553571429 48.6232000000
1797 1 120.7759172550 40.3728571429 49.5727000000
1798 2 122.9899976121 40.3728571429 48.6232000000
1799 1 124.0970904693 38.4553571429 49.5727000000
1800 2 119.6688243979 42.2903571429 52.7592000000
1801 1 120.7759172550 44.2078571429 51.8097000000
1802 2 122.9899976121 44.2078571429 52.7592000000
1803 1 124.0970904693 42.2903571429 51.8097000000
1804 2 119.6688243979 42.2903571429 48.6232000000
1805 1 120.7759172550 44.2078571429 49.5727000000
1806 2 122.9899976121 44.2078571429 48.6232000000
1807 1 124.0970904693 42.2903571429 49.5727000000
1808 2 126.3112761836 38.4553571429 52.7592000000
1809 1 127.4182636836 40.3728571429 51.8097000000
1810 2 129.6324493979 40.3728571429 52.7592000000
1811 1 130.7395422550 38.4553571429 51.8097000000
1812 2 126.3112761836 38.4553571429 48.6232000000
1813 1 127.4182636836 40.3728571429 49.5727000000
1814 2 129.6324493979 40.3728571429 48.6232000000
1815 1 130.7395422550 38.4553571429 49.5727000000
1816 2 126.3112761836 42.2903571429 52.7592000000
1817 1 127.4182636836 44.2078571429 51.8097000000
1818 2 129.6324493979 44.2078571429 52.7592000000
1819 1 130.7395422550 42.2903571429 51.8097000000
1820 1 127.4182636836 44.2078571429 49.5727000000
1821 2 129.6324493979 44.2078571429 48.6232000000
1822 1 130.7395422550 42.2903571429 49.5727000000
1823 2 0.1053571429 46.1253571429 52.7592000000
1824 1 1.2124500000 48.0428571429 51.8097000000
1825 2 3.4265303571 48.0428571429 52.7592000000
1826 1 4.5336232143 46.1253571429 51.8097000000
1827 2 0.1053571429 46.1253571429 48.6232000000
1828 1 1.2124500000 48.0428571429 49.5727000000
1829 2 3.4265303571 48.0428571429 48.6232000000
1830 1 4.5336232143 46.1253571429 49.5727000000
1831 2 0.1053571429 49.9603571429 52.7592000000
1832 1 1.2124500000 51.8778571429 51.8097000000
1833 2 3.4265303571 51.8778571429 52.7592000000
1834 1 4.5336232143 49.9603571429 51.8097000000
1835 2 0.1053571429 49.9603571429 48.6232000000
1836 1 1.2124500000 51.8778571429 49.5727000000
1837 2 3.4265303571 51.8778571429 48.6232000000
1838 1 4.5336232143 49.9603571429 49.5727000000
1839 1 7.8547964286 48.0428571429 51.8097000000
1840 2 10.0689821429 48.0428571429 52.7592000000
1841 1 11.1760750000 46.1253571429 51.8097000000
1842 2 6.7478089286 46.1253571429 48.6232000000
1843 1 7.8547964286 48.0428571429 49.5727000000
1844 2 10.0689821429 48.0428571429 48.6232000000
1845 1 11.1760750000 46.1253571429 49.5727000000
1846 2 6.7478089286 49.9603571429 52.7592000000
1847 1 7.8547964286 51.8778571429 51.8097000000
1848 2 10.0689821429 51.8778571429 52.7592000000
1849 1 11.1760750000 49.9603571429 51.8097000000
1850 2 6.7478089286 49.9603571429 48.6232000000
1851 1 7.8547964286 51.8778571429 49.5727000000
1852 2 10.0689821429 51.8778571429 48.6232000000
1853 1 11.1760750000 49.9603571429 49.5727000000
1854 2 13.3901868379 46.1253571429 52.7592000000
1855 1 14.4972796950 48.0428571429 51.8097000000
1856 1 17.8184529093 46.1253571429 51.8097000000
1857 2 13.3901868379 46.1253571429 48.6232000000
1858 1 14.4972796950 48.0428571429 49.5727000000
1859 2 16.7113600521 48.0428571429 48.6232000000
1860 1 17.8184529093 46.1253571429 49.5727000000
1861 2 13.3901868379 49.9603571429 52.7592000000
1862 1 14.4972796950 51.8778571429 51.8097000000
1863 2 16.7113600521 51.8778571429 52.7592000000
1864 1 17.8184529093 49.9603571429 51.8097000000
1865 2 13.3901868379 49.9603571429 48.6232000000
1866 1 14.4972796950 51.8778571429 49.5727000000
1867 2 16.7113600521 51.8778571429 48.6232000000
1868 1 17.8184529093 49.9603571429 49.5727000000
1869 2 20.0326386236 46.1253571429 52.7592000000
1870 1 21.1396261236 48.0428571429 51.8097000000
1871 2 23.3538118379 48.0428571429 52.7592000000
1872 1 24.4609046950 46.1253571429 51.8097000000
1873 2 20.0326386236 46.1253571429 48.6232000000
1874 1 21.1396261236 48.0428571429 49.5727000000
1875 1 24.4609046950 46.1253571429 49.5727000000
1876 2 20.0326386236 49.9603571429 52.7592000000
1877 1 21.1396261236 51.8778571429 51.8097000000
1878 2 23.3538118379 51.8778571429 52.7592000000
1879 1 24.4609046950 49.9603571429 51.8097000000
1880 2 20.0326386236 49.9603571429 48.6232000000
1881 1 21.1396261236 51.8778571429 49.5727000000
1882 2 23.3538118379 51.8778571429 48.6232000000
1883 1 24.4609046950 49.9603571429 49.5727000000
1884 2 26.6750165329 46.1253571429 52.7592000000
1885 1 27.7821093900 48.0428571429 51.8097000000
1886 1 31.1032826043 46.1253571429 51.8097000000
1887 2 26.6750165329 46.1253571429 48.6232000000
1888 1 27.7821093900 48.0428571429 49.5727000000
1889 2 29.9961897471 48.0428571429 48.6232000000
1890 1 31.1032826043 46.1253571429 49.5727000000
1891 2 26.6750165329 49.9603571429 52.7592000000
1892 1 27.7821093900 51.8778571429 51.8097000000
1893 2 29.9961897471 51.8778571429 52.7592000000
1894 1 31.1032826043 49.9603571429 51.8097000000
1895 2 26.6750165329 49.9603571429 48.6232000000
1896 1 27.7821093900 51.8778571429 49.5727000000
1897 2 29.9961897471 51.8778571429 48.6232000000
1898 1 31.1032826043 49.9603571429 49.5727000000
1899 2 33.3174683186 46.1253571429 52.7592000000
1900 1 34.4244558186 48.0428571429 51.8097000000
1901 2 36.6386415329 48.0428571429 52.7592000000
1902 1 37.7457343900 46.1253571429 51.8097000000
1903 2 33.3174683186 46.1253571429 48.6232000000
1904 1 34.4244558186 48.0428571429 49.5727000000
1905 2 36.6386415329 48.0428571429 48.6232000000
1906 1 37.7457343900 46.1253571429 49.5727000000
1907 2 33.3174683186 49.9603571429 52.7592000000
1908 1 34.4244558186 51.8778571429 51.8097000000
1909 1 37.7457343900 49.9603571429 51.8097000000
1910 2 33.3174683186 49.9603571429 48.6232000000
1911 1 34.4244558186 51.8778571429 49.5727000000
1912 2 36.6386415329 51.8778571429 48.6232000000
1913 1 37.7457343900 49.9603571429 49.5727000000
1914 2 39.9598462279 46.1253571429 52.7592000000
1915 1 41.0669390850 48.0428571429 51.8097000000
1916 2 43.2810194421 48.0428571429 52.7592000000
1917 1 44.3881122993 46.1253571429 51.8097000000
1918 2 39.9598462279 46.1253571429 48.6232000000
1919 1 41.0669390850 48.0428571429 49.5727000000
1920 2 43.2810194421 48.0428571429 48.6232000000
1921 1 44.3881122993 46.1253571429 49.5727000000
1922 2 39.9598462279 49.9603571429 52.7592000000
1923 1 41.0669390850 51.8778571429 51.8097000000
1924 2 43.2810194421 51.8778571429 52.7592000000
1925 1 44.3881122993 49.9603571429 51.8097000000
1926 2 39.9598462279 49.9603571429 48.6232000000
1927 1 41.0669390850 51.8778571429 49.5727000000
1928 2 43.2810194421 51.8778571429 48.6232000000
1929 1 44.3881122993 49.9603571429 49.5727000000
1930 2 46.6022980136 46.1253571429 52.7592000000
1931 1 47.7092855136 48.0428571429 51.8097000000
1932 2 49.9234712279 48.0428571429 52.7592000000
1933 1 51.0305640850 46.1253571429 51.8097000000
1934 2 46.6022980136 46.1253571429 48.6232000000
1935 1 47.7092855136 48.0428571429 49.5727000000
1936 2 49.9234712279 48.0428571429 48.6232000000
1937 1 51.0305640850 46.1253571429 49.5727000000
1938 2 46.6022980136 49.9603571429 52.7592000000
1939 1 47.7092855136 51.8778571429 51.8097000000
1940 2 49.9234712279 51.8778571429 52.7592000000
1941 1 51.0305640850 49.9603571429 51.8097000000
1942 2 46.6022980136 49.9603571429 48.6232000000
1943 1 47.7092855136 51.8778571429 49.5727000000
1944 2 49.9234712279 51.8778571429 48.6232000000
1945 1 51.0305640850 49.9603571429 49.5727000000
1946 2 53.2446759229 46.1253571429 52.7592000000
1947 1 54.3517687800 48.0428571429 51.8097000000
1948 2 56.5658491371 48.0428571429 52.7592000000
1949 1 57.6729419943 46.1253571429 51.8097000000
1950 2 53.2446759229 46.1253571429 48.6232000000
1951 1 54.3517687800 48.0428571429 49.5727000000
1952 2 56.5658491371 48.0428571429 48.6232000000
1953 1 57.6729419943 46.1253571429 49.5727000000
1954 2 53.2446759229 49.9603571429 52.7592000000
1955 1 54.3517687800 51.8778571429 51.8097000000
1956 2 56.5658491371 51.8778571429 52.7592000000
1957 1 57.6729419943 49.9603571429 51.8097000000
1958 2 53.2446759229 49.9603571429 48.6232000000
1959 1 54.3517687800 51.8778571429 49.5727000000
1960 2 56.5658491371 51.8778571429 48.6232000000
1961 1 57.6729419943 49.9603571429 49.5727000000
1962 2 59.8871277086 46.1253571429 52.7592000000
1963 1 60.9941152086 48.0428571429 51.8097000000
1964 2 63.2083009229 48.0428571429 52.7592000000
1965 1 64.3153937800 46.1253571429 51.8097000000
1966 2 59.8871277086 46.1253571429 48.6232000000
1967 1 60.9941152086 48.0428571429 49.5727000000
1968 1 64.3153937800 46.1253571429 49.5727000000
1969 2 59.8871277086 49.9603571429 52.7592000000
1970 1 60.9941152086 51.8778571429 51.8097000000
1971 2 63.2083009229 51.8778571429 52.7592000000
1972 1 64.3153937800 49.9603571429 51.8097000000
1973 2 59.8871277086 49.9603571429 48.6232000000
1974 1 60.9941152086 51.8778571429 49.5727000000
1975 2 63.2083009229 51.8778571429 48.6232000000
1976 1 64.3153937800 49.9603571429 49.5727000000
1977 2 66.5295056179 46.1253571429 52.7592000000
1978 1 67.6365984750 48.0428571429 51.8097000000
1979 2 69.8506788321 48.0428571429 52.7592000000
1980 1 70.9577716893 46.1253571429 51.8097000000
1981 2 66.5295056179 46.1253571429 48.6232000000
1982 1 67.6365984750 48.0428571429 49.5727000000
1983 2 69.8506788321 48.0428571429 48.6232000000
1984 1 70.9577716893 46.1253571429 49.5727000000
1985 2 66.5295056179 49.9603571429 52.7592000000
1986 1 67.6365984750 51.8778571429 51.8097000000
1987 2 69.8506788321 51.8778571429 52.7592000000
1988 1 70.9577716893 49.9603571429 51.8097000000
1989 2 66.5295056179 49.9603571429 48.6232000000
1990 1 67.6365984750 51.8778571429 49.5727000000
1991 2 69.8506788321 51.8778571429 48.6232000000
1992 1 70.9577716893 49.9603571429 49.5727000000
1993 2 73.1719574036 46.1253571429 52.7592000000
1994 1 74.2789449036 48.0428571429 51.8097000000
1995 2 76.4931306179 48.0428571429 52.7592000000
1996 1 77.6002234750 46.1253571429 51.8097000000
1997 2 73.1719574036 46.1253571429 48.6232000000
1998 1 74.2789449036 48.0428571429 49.5727000000
1999 2 76.4931306179 48.0428571429 48.6232000000
2000 1 77.6002234750 46.1253571429 49.5727000000
2001 2 73.1719574036 49.9603571429 52.7592000000
2002 1 74.2789449036 51.8778571429 51.8097000000
2003 2 76.4931306179 51.8778571429 52.7592000000
2004 1 77.6002234750 49.9603571429 51.8097000000
2005 2 73.1719574036 49.9603571429 48.6232000000
2006 1 74.2789449036 51.8778571429 49.5727000000
2007 2 76.4931306179 51.8778571429 48.6232000000
2008 1 77.6002234750 49.9603571429 49.5727000000
2009 1 80.9214281700 48.0428571429 51.8097000000
2010 2 83.1355085271 48.0428571429 52.7592000000
2011 1 84.2426013843 46.1253571429 51.8097000000
2012 2 79.8143353129 46.1253571429 48.6232000000
2013 1 80.9214281700 48.0428571429 49.5727000000
2014 2 83.1355085271 48.0428571429 48.6232000000
2015 1 84.2426013843 46.1253571429 49.5727000000
2016 2 79.8143353129 49.9603571429 52.7592000000
2017 1 80.9214281700 51.8778571429 51.8097000000
2018 2 83.1355085271 51.8778571429 52.7592000000
2019 1 84.2426013843 49.9603571429 51.8097000000
2020 2 79.8143353129 49.9603571429 48.6232000000
2021 1 80.9214281700 51.8778571429 49.5727000000
2022 2 83.1355085271 51.8778571429 48.6232000000
2023 1 84.2426013843 49.9603571429 49.5727000000
2024 2 86.4567870986 46.1253571429 52.7592000000
2025 1 87.5637745986 48.0428571429 51.8097000000
2026 2 89.7779603129 48.0428571429 52.7592000000
2027 1 90.8850531700 46.1253571429 51.8097000000
2028 2 86.4567870986 46.1253571429 48.6232000000
2029 1 87.5637745986 48.0428571429 49.5727000000
2030 2 89.7779603129 48.0428571429 48.6232000000
2031 1 90.8850531700 46.1253571429 49.5727000000
2032 2 86.4567870986 49.9603571429 52.7592000000
2033 1 87.5637745986 51.8778571429 51.8097000000
2034 2 89.7779603129 51.8778571429 52.7592000000
2035 1 90.8850531700 49.9603571429 51.8097000000
2036 2 86.4567870986 49.9603571429 48.6232000000
2037 1 87.5637745986 51.8778571429 49.5727000000
2038 1 90.8850531700 49.9603571429 49.5727000000
2039 2 93.0991650079 46.1253571429 52.7592000000
2040 1 94.2062578650 48.0428571429 51.8097000000
2041 2 96.4203382221 48.0428571429 52.7592000000
2042 1 97.5274310793 46.1253571429 51.8097000000
2043 2 93.0991650079 46.1253571429 48.6232000000
2044 1 94.2062578650 48.0428571429 49.5727000000
2045 2 96.4203382221 48.0428571429 48.6232000000
2046 1 97.5274310793 46.1253571429 49.5727000000
2047 2 93.0991650079 49.9603571429 52.7592000000
2048 1 94.2062578650 51.8778571429 51.8097000000
2049 1 97.5274310793 49.9603571429 51.8097000000
2050 2 93.0991650079 49.9603571429 48.6232000000
2051 1 94.2062578650 51.8778571429 49.5727000000
2052 2 96.4203382221 51.8778571429 48.6232000000
2053 1 97.5274310793 49.9603571429 49.5727000000
2054 2 99.7416167936 46.1253571429 52.7592000000
2055 1 100.8486042936 48.0428571429 51.8097000000
2056 2 103.0627900079 48.0428571429 52.7592000000
2057 1 104.1698828650 46.1253571429 51.8097000000
2058 2 99.7416167936 46.1253571429 48.6232000000
2059 1 100.8486042936 48.0428571429 49.5727000000
2060 2 103.0627900079 48.0428571429 48.6232000000
2061 1 104.1698828650 46.1253571429 49.5727000000
2062 2 99.7416167936 49.9603571429 52.7592000000
2063 1 100.8486042936 51.8778571429 51.8097000000
2064 1 104.1698828650 49.9603571429 51.8097000000
2065 2 99.7416167936 49.9603571429 48.6232000000
2066 1 100.8486042936 51.8778571429 49.5727000000
2067 2 103.0627900079 51.8778571429 48.6232000000
2068 1 104.1698828650 49.9603571429 49.5727000000
2069 2 106.3839947029 46.1253571429 52.7592000000
2070 1 107.4910875600 48.0428571429 51.8097000000
2071 1 110.8122607743 46.1253571429 51.8097000000
2072 2 106.3839947029 46.1253571429 48.6232000000
2073 1 107.4910875600 48.0428571429 49.5727000000
2074 2 109.7051679171 48.0428571429 48.6232000000
2075 1 110.8122607743 46.1253571429 49.5727000000
2076 2 106.3839947029 49.9603571429 52.7592000000
2077 1 107.4910875600 51.8778571429 51.8097000000
2078 2 109.7051679171 51.8778571429 52.7592000000
2079 1 110.8122607743 49.9603571429 51.8097000000
2080 2 106.3839947029 49.9603571429 48.6232000000
2081 1 107.4910875600 51.8778571429 49.5727000000
2082 2 109.7051679171 51.8778571429 48.6232000000
2083 1 110.8122607743 49.9603571429 49.5727000000
2084 2 113.0264464886 46.1253571429 52.7592000000
2085 1 114.1334339886 48.0428571429 51.8097000000
2086 2 116.3476197029 48.0428571429 52.7592000000
2087 1 117.4547125600 46.1253571429 51.8097000000
2088 2 113.0264464886 46.1253571429 48.6232000000
2089 1 114.1334339886 48.0428571429 49.5727000000
2090 2 116.3476197029 48.0428571429 48.6232000000
2091 1 117.4547125600 46.1253571429 49.5727000000
2092 2 113.0264464886 49.9603571429 52.7592000000
2093 1 114.1334339886 51.8778571429 51.8097000000
2094 2 116.3476197029 51.8778571429 52.7592000000
2095 1 117.4547125600 49.9603571429 51.8097000000
2096 2 113.0264464886 49.9603571429 48.6232000000
2097 1 114.1334339886 51.8778571429 49.5727000000
2098 2 116.3476197029 51.8778571429 48.6232000000
2099 1 117.4547125600 49.9603571429 49.5727000000
2100 2 119.6688243979 46.1253571429 52.7592000000
2101 1 120.7759172550 48.0428571429 51.8097000000
2102 2 122.9899976121 48.0428571429 52.7592000000
2103 1 124.0970904693 46.1253571429 51.8097000000
2104 1 120.7759172550 48.0428571429 49.5727000000
2105 2 122.9899976121 48.0428571429 48.6232000000
2106 1 124.0970904693 46.1253571429 49.5727000000
2107 2 119.6688243979 49.9603571429 52.7592000000
2108 1 120.7759172550 51.8778571429 51.8097000000
2109 2 122.9899976121 51.8778571429 52.7592000000
2110 1 124.0970904693 49.9603571429 51.8097000000
2111 2 119.6688243979 49.9603571429 48.6232000000
2112 1 120.7759172550 51.8778571429 49.5727000000
2113 1 124.0970904693 49.9603571429 49.5727000000
2114 2 126.3112761836 46.1253571429 52.7592000000
2115 1 127.4182636836 48.0428571429 51.8097000000
2116 1 130.7395422550 46.1253571429 51.8097000000
2117 2 126.3112761836 46.1253571429 48.6232000000
2118 1 127.4182636836 48.0428571429 49.5727000000
2119 2 129.6324493979 48.0428571429 48.6232000000
2120 1 130.7395422550 46.1253571429 49.5727000000
2121 2 126.3112761836 49.9603571429 52.7592000000
2122 1 127.4182636836 51.8778571429 51.8097000000
2123 2 129.6324493979 51.8778571429 52.7592000000
2124 1 130.7395422550 49.9603571429 51.8097000000
2125 2 126.3112761836 49.9603571429 48.6232000000
2126 1 127.4182636836 51.8778571429 49.5727000000
2127 2 129.6324493979 51.8778571429 48.6232000000
2128 1 130.7395422550 49.9603571429 49.5727000000
2129 2 0.1053571429 53.7953571429 52.7592000000
2130 1 1.2124500000 55.7128571429 51.8097000000
2131 2 3.4265303571 55.7128571429 52.7592000000
2132 1 4.5336232143 53.7953571429 51.8097000000
2133 2 0.1053571429 53.7953571429 48.6232000000
2134 1 1.2124500000 55.7128571429 49.5727000000
2135 2 3.4265303571 55.7128571429 48.6232000000
2136 1 4.5336232143 53.7953571429 49.5727000000
2137 2 0.1053571429 57.6303571429 52.7592000000
2138 1 1.2124500000 59.5478571429 51.8097000000
2139 2 3.4265303571 59.5478571429 52.7592000000
2140 1 4.5336232143 57.6303571429 51.8097000000
2141 2 0.1053571429 57.6303571429 48.6232000000
2142 1 1.2124500000 59.5478571429 49.5727000000
2143 2 3.4265303571 59.5478571429 48.6232000000
2144 1 4.5336232143 57.6303571429 49.5727000000
2145 2 6.7478089286 53.7953571429 52.7592000000
2146 1 7.8547964286 55.7128571429 51.8097000000
2147 1 11.1760750000 53.7953571429 51.8097000000
2148 2 6.7478089286 53.7953571429 48.6232000000
2149 1 7.8547964286 55.7128571429 49.5727000000
2150 2 10.0689821429 55.7128571429 48.6232000000
2151 1 11.1760750000 53.7953571429 49.5727000000
2152 2 6.7478089286 57.6303571429 52.7592000000
2153 1 7.8547964286 59.5478571429 51.8097000000
2154 2 10.0689821429 59.5478571429 52.7592000000
2155 1 11.1760750000 57.6303571429 51.8097000000
2156 2 6.7478089286 57.6303571429 48.6232000000
2157 1 7.8547964286 59.5478571429 49.5727000000
2158 2 10.0689821429 59.5478571429 48.6232000000
2159 1 11.1760750000 57.6303571429 49.5727000000
2160 2 13.3901868379 53.7953571429 52.7592000000
2161 1 14.4972796950 55.7128571429 51.8097000000
2162 2 16.7113600521 55.7128571429 52.7592000000
2163 1 17.8184529093 53.7953571429 51.8097000000
2164 2 13.3901868379 53.7953571429 48.6232000000
2165 1 14.4972796950 55.7128571429 49.5727000000
2166 2 16.7113600521 55.7128571429 48.6232000000
2167 1 17.8184529093 53.7953571429 49.5727000000
2168 2 13.3901868379 57.6303571429 52.7592000000
2169 1 14.4972796950 59.5478571429 51.8097000000
2170 2 16.7113600521 59.5478571429 52.7592000000
2171 1 17.8184529093 57.6303571429 51.8097000000
2172 2 13.3901868379 57.6303571429 48.6232000000
2173 1 14.4972796950 59.5478571429 49.5727000000
2174 1 17.8184529093 57.6303571429 49.5727000000
2175 2 20.0326386236 53.7953571429 52.7592000000
2176 1 21.1396261236 55.7128571429 51.8097000000
2177 2 23.3538118379 55.7128571429 52.7592000000
2178 1 24.4609046950 53.7953571429 51.8097000000
2179 1 21.1396261236 55.7128571429 49.5727000000
2180 2 23.3538118379 55.7128571429 48.6232000000
2181 1 24.4609046950 53.7953571429 49.5727000000
2182 2 20.0326386236 57.6303571429 52.7592000000
2183 1 21.1396261236 59.5478571429 51.8097000000
2184 2 23.3538118379 59.5478571429 52.7592000000
2185 1 24.4609046950 57.6303571429 51.8097000000
2186 2 20.0326386236 57.6303571429 48.6232000000
2187 1 21.1396261236 59.5478571429 49.5727000000
2188 2 23.3538118379 59.5478571429 48.6232000000
2189 1 24.4609046950 57.6303571429 49.5727000000
2190 2 26.6750165329 53.7953571429 52.7592000000
2191 1 27.7821093900 55.7128571429 51.8097000000
2192 2 29.9961897471 55.7128571429 52.7592000000
2193 1 31.1032826043 53.7953571429 51.8097000000
2194 2 26.6750165329 53.7953571429 48.6232000000
2195 1 27.7821093900 55.7128571429 49.5727000000
2196 2 29.9961897471 55.7128571429 48.6232000000
2197 1 31.1032826043 53.7953571429 49.5727000000
2198 1 27.7821093900 59.5478571429 51.8097000000
2199 2 29.9961897471 59.5478571429 52.7592000000
2200 1 31.1032826043 57.6303571429 51.8097000000
2201 2 26.6750165329 57.6303571429 48.6232000000
2202 1 27.7821093900 59.5478571429 49.5727000000
2203 2 29.9961897471 59.5478571429 48.6232000000
2204 1 31.1032826043 57.6303571429 49.5727000000
2205 2 33.3174683186 53.7953571429 52.7592000000
2206 1 34.4244558186 55.7128571429 51.8097000000
2207 2 36.6386415329 55.7128571429 52.7592000000
2208 1 37.7457343900 53.7953571429 51.8097000000
2209 2 33.3174683186 53.7953571429 48.6232000000
2210 1 34.4244558186 55.7128571429 49.5727000000
2211 2 36.6386415329 55.7128571429 48.6232000000
2212 1 37.7457343900 53.7953571429 49.5727000000
2213 2 33.3174683186 57.6303571429 52.7592000000
2214 1 34.4244558186 59.5478571429 51.8097000000
2215 2 36.6386415329 59.5478571429 52.7592000000
2216 1 37.7457343900 57.6303571429 51.8097000000
2217 2 33.3174683186 57.6303571429 48.6232000000
2218 1 34.4244558186 59.5478571429 49.5727000000
2219 2 36.6386415329 59.5478571429 48.6232000000
2220 1 37.7457343900 57.6303571429 49.5727000000
2221 2 39.9598462279 53.7953571429 52.7592000000
2222 1 41.0669390850 55.7128571429 51.8097000000
2223 2 43.2810194421 55.7128571429 52.7592000000
2224 1 44.3881122993 53.7953571429 51.8097000000
2225 2 39.9598462279 53.7953571429 48.6232000000
2226 1 41.0669390850 55.7128571429 49.5727000000
2227 2 43.2810194421 55.7128571429 48.6232000000
2228 1 44.3881122993 53.7953571429 49.5727000000
2229 2 39.9598462279 57.6303571429 52.7592000000
2230 1 41.0669390850 59.5478571429 51.8097000000
2231 2 43.2810194421 59.5478571429 52.7592000000
2232 1 44.3881122993 57.6303571429 51.8097000000
2233 1 41.0669390850 59.5478571429 49.5727000000
2234 2 43.2810194421 59.5478571429 48.6232000000
2235 1 44.3881122993 57.6303571429 49.5727000000
2236 2 46.6022980136 53.7953571429 52.7592000000
2237 1 47.7092855136 55.7128571429 51.8097000000
2238 2 49.9234712279 55.7128571429 52.7592000000
2239 1 51.0305640850 53.7953571429 51.8097000000
2240 1 47.7092855136 55.7128571429 49.5727000000
2241 2 49.9234712279 55.7128571429 48.6232000000
2242 1 51.0305640850 53.7953571429 49.5727000000
2243 2 46.6022980136 57.6303571429 52.7592000000
2244 1 47.7092855136 59.5478571429 51.8097000000
2245 2 49.9234712279 59.5478571429 52.7592000000
2246 1 51.0305640850 57.6303571429 51.8097000000
2247 2 46.6022980136 57.6303571429 48.6232000000
2248 1 47.7092855136 59.5478571429 49.5727000000
2249 1 51.0305640850 57.6303571429 49.5727000000
2250 2 53.2446759229 53.7953571429 52.7592000000
2251 1 54.3517687800 55.7128571429 51.8097000000
2252 2 56.5658491371 55.7128571429 52.7592000000
2253 1 57.6729419943 53.7953571429 51.8097000000
2254 2 53.2446759229 53.7953571429 48.6232000000
2255 1 54.3517687800 55.7128571429 49.5727000000
2256 2 56.5658491371 55.7128571429 48.6232000000
2257 1 57.6729419943 53.7953571429 49.5727000000
2258 2 53.2446759229 57.6303571429 52.7592000000
2259 1 54.3517687800 59.5478571429 51.8097000000
2260 2 56.5658491371 59.5478571429 52.7592000000
2261 1 57.6729419943 57.6303571429 51.8097000000
2262 2 53.2446759229 57.6303571429 48.6232000000
2263 1 54.3517687800 59.5478571429 49.5727000000
2264 1 57.6729419943 57.6303571429 49.5727000000
2265 1 60.9941152086 55.7128571429 51.8097000000
2266 2 63.2083009229 55.7128571429 52.7592000000
2267 1 64.3153937800 53.7953571429 51.8097000000
2268 2 59.8871277086 53.7953571429 48.6232000000
2269 1 60.9941152086 55.7128571429 49.5727000000
2270 2 63.2083009229 55.7128571429 48.6232000000
2271 1 64.3153937800 53.7953571429 49.5727000000
2272 2 59.8871277086 57.6303571429 52.7592000000
2273 1 60.9941152086 59.5478571429 51.8097000000
2274 2 63.2083009229 59.5478571429 52.7592000000
2275 1 64.3153937800 57.6303571429 51.8097000000
2276 2 59.8871277086 57.6303571429 48.6232000000
2277 1 60.9941152086 59.5478571429 49.5727000000
2278 1 64.3153937800 57.6303571429 49.5727000000
2279 1 67.6365984750 55.7128571429 51.8097000000
2280 2 69.8506788321 55.7128571429 52.7592000000
2281 1 70.9577716893 53.7953571429 51.8097000000
2282 2 66.5295056179 53.7953571429 48.6232000000
2283 1 67.6365984750 55.7128571429 49.5727000000
2284 2 69.8506788321 55.7128571429 48.6232000000
2285 1 70.9577716893 53.7953571429 49.5727000000
2286 2 66.5295056179 57.6303571429 52.7592000000
2287 1 67.6365984750 59.5478571429 51.8097000000
2288 2 69.8506788321 59.5478571429 52.7592000000
2289 1 70.9577716893 57.6303571429 51.8097000000
2290 2 66.5295056179 57.6303571429 48.6232000000
2291 1 67.6365984750 59.5478571429 49.5727000000
2292 1 70.9577716893 57.6303571429 49.5727000000
2293 1 74.2789449036 55.7128571429 51.8097000000
2294 2 76.4931306179 55.7128571429 52.7592000000
2295 1 77.6002234750 53.7953571429 51.8097000000
2296 2 73.1719574036 53.7953571429 48.6232000000
2297 1 74.2789449036 55.7128571429 49.5727000000
2298 2 76.4931306179 55.7128571429 48.6232000000
2299 1 77.6002234750 53.7953571429 49.5727000000
2300 2 73.1719574036 57.6303571429 52.7592000000
2301 1 74.2789449036 59.5478571429 51.8097000000
2302 2 76.4931306179 59.5478571429 52.7592000000
2303 1 77.6002234750 57.6303571429 51.8097000000
2304 2 73.1719574036 57.6303571429 48.6232000000
2305 1 74.2789449036 59.5478571429 49.5727000000
2306 2 76.4931306179 59.5478571429 48.6232000000
2307 1 77.6002234750 57.6303571429 49.5727000000
2308 2 79.8143353129 53.7953571429 52.7592000000
2309 1 80.9214281700 55.7128571429 51.8097000000
2310 1 84.2426013843 53.7953571429 51.8097000000
2311 2 79.8143353129 53.7953571429 48.6232000000
2312 1 80.9214281700 55.7128571429 49.5727000000
2313 2 83.1355085271 55.7128571429 48.6232000000
2314 1 84.2426013843 53.7953571429 49.5727000000
2315 2 79.8143353129 57.6303571429 52.7592000000
2316 1 80.9214281700 59.5478571429 51.8097000000
2317 2 83.1355085271 59.5478571429 52.7592000000
2318 1 84.2426013843 57.6303571429 51.8097000000
2319 2 79.8143353129 57.6303571429 48.6232000000
2320 1 80.9214281700 59.5478571429 49.5727000000
2321 2 83.1355085271 59.5478571429 48.6232000000
2322 1 84.2426013843 57.6303571429 49.5727000000
2323 2 86.4567870986 53.7953571429 52.7592000000
2324 1 87.5637745986 55.7128571429 51.8097000000
2325 2 89.7779603129 55.7128571429 52.7592000000
2326 1 90.8850531700 53.7953571429 51.8097000000
2327 2 86.4567870986 53.7953571429 48.6232000000
2328 1 87.5637745986 55.7128571429 49.5727000000
2329 2 89.7779603129 55.7128571429 48.6232000000
2330 1 90.8850531700 53.7953571429 49.5727000000
2331 2 86.4567870986 57.6303571429 52.7592000000
2332 1 87.5637745986 59.5478571429 51.8097000000
2333 2 89.7779603129 59.5478571429 52.7592000000
2334 1 90.8850531700 57.6303571429 51.8097000000
2335 2 86.4567870986 57.6303571429 48.6232000000
2336 1 87.5637745986 59.5478571429 49.5727000000
2337 2 89.7779603129 59.5478571429 48.6232000000
2338 1 90.8850531700 57.6303571429 49.5727000000
2339 2 93.0991650079 53.7953571429 52.7592000000
2340 1 94.2062578650 55.7128571429 51.8097000000
2341 2 96.4203382221 55.7128571429 52.7592000000
2342 1 97.5274310793 53.7953571429 51.8097000000
2343 2 93.0991650079 53.7953571429 48.6232000000
2344 1 94.2062578650 55.7128571429 49.5727000000
2345 2 96.4203382221 55.7128571429 48.6232000000
2346 1 97.5274310793 53.7953571429 49.5727000000
2347 2 93.0991650079 57.6303571429 52.7592000000
2348 1 94.2062578650 59.5478571429 51.8097000000
2349 1 97.5274310793 57.6303571429 51.8097000000
2350 2 93.0991650079 57.6303571429 48.6232000000
2351 1 94.2062578650 59.5478571429 49.5727000000
2352 2 96.4203382221 59.5478571429 48.6232000000
2353 1 97.5274310793 57.6303571429 49.5727000000
2354 2 99.7416167936 53.7953571429 52.7592000000
2355 1 100.8486042936 55.7128571429 51.8097000000
2356 2 103.0627900079 55.7128571429 52.7592000000
2357 1 104.1698828650 53.7953571429 51.8097000000
2358 2 99.7416167936 53.7953571429 48.6232000000
2359 1 100.8486042936 55.7128571429 49.5727000000
2360 2 103.0627900079 55.7128571429 48.6232000000
2361 1 104.1698828650 53.7953571429 49.5727000000
2362 2 99.7416167936 57.6303571429 52.7592000000
2363 1 100.8486042936 59.5478571429 51.8097000000
2364 2 103.0627900079 59.5478571429 52.7592000000
2365 1 104.1698828650 57.6303571429 51.8097000000
2366 2 99.7416167936 57.6303571429 48.6232000000
2367 1 100.8486042936 59.5478571429 49.5727000000
2368 2 103.0627900079 59.5478571429 48.6232000000
2369 1 104.1698828650 57.6303571429 49.5727000000
2370 2 106.3839947029 53.7953571429 52.7592000000
2371 1 107.4910875600 55.7128571429 51.8097000000
2372 2 109.7051679171 55.7128571429 52.7592000000
2373 1 110.8122607743 53.7953571429 51.8097000000
2374 2 106.3839947029 53.7953571429 48.6232000000
2375 1 107.4910875600 55.7128571429 49.5727000000
2376 2 109.7051679171 55.7128571429 48.6232000000
2377 1 110.8122607743 53.7953571429 49.5727000000
2378 2 106.3839947029 57.6303571429 52.7592000000
2379 1 107.4910875600 59.5478571429 51.8097000000
2380 2 109.7051679171 59.5478571429 52.7592000000
2381 1 110.8122607743 57.6303571429 51.8097000000
2382 2 106.3839947029 57.6303571429 48.6232000000
2383 1 107.4910875600 59.5478571429 49.5727000000
2384 2 109.7051679171 59.5478571429 48.6232000000
2385 1 110.8122607743 57.6303571429 49.5727000000
2386 1 114.1334339886 55.7128571429 51.8097000000
2387 2 116.3476197029 55.7128571429 52.7592000000
2388 1 117.4547125600 53.7953571429 51.8097000000
2389 2 113.0264464886 53.7953571429 48.6232000000
2390 1 114.1334339886 55.7128571429 49.5727000000
2391 2 116.3476197029 55.7128571429 48.6232000000
2392 1 117.4547125600 53.7953571429 49.5727000000
2393 2 113.0264464886 57.6303571429 52.7592000000
2394 1 114.1334339886 59.5478571429 51.8097000000
2395 2 116.3476197029 59.5478571429 52.7592000000
2396 1 117.4547125600 57.6303571429 51.8097000000
2397 2 113.0264464886 57.6303571429 48.6232000000
2398 1 114.1334339886 59.5478571429 49.5727000000
2399 2 116.3476197029 59.5478571429 48.6232000000
2400 1 117.4547125600 57.6303571429 49.5727000000
2401 2 119.6688243979 53.7953571429 52.7592000000
2402 1 120.7759172550 55.7128571429 51.8097000000
2403 2 122.9899976121 55.7128571429 52.7592000000
2404 1 124.0970904693 53.7953571429 51.8097000000
2405 2 119.6688243979 53.7953571429 48.6232000000
2406 1 120.7759172550 55.7128571429 49.5727000000
2407 2 122.9899976121 55.7128571429 48.6232000000
2408 1 124.0970904693 53.7953571429 49.5727000000
2409 2 119.6688243979 57.6303571429 52.7592000000
2410 1 120.7759172550 59.5478571429 51.8097000000
2411 2 122.9899976121 59.5478571429 52.7592000000
2412 1 124.0970904693 57.6303571429 51.8097000000
2413 1 120.7759172550 59.5478571429 49.5727000000
2414 2 122.9899976121 59.5478571429 48.6232000000
2415 1 124.0970904693 57.6303571429 49.5727000000
2416 2 126.3112761836 53.7953571429 52.7592000000
2417 1 127.4182636836 55.7128571429 51.8097000000
2418 2 129.6324493979 55.7128571429 52.7592000000
2419 1 130.7395422550 53.7953571429 51.8097000000
2420 2 126.3112761836 53.7953571429 48.6232000000
2421 1 127.4182636836 55.7128571429 49.5727000000
2422 1 130.7395422550 53.7953571429 49.5727000000
2423 2 126.3112761836 57.6303571429 52.7592000000
2424 1 127.4182636836 59.5478571429 51.8097000000
2425 2 129.6324493979 59.5478571429 52.7592000000
2426 1 130.7395422550 57.6303571429 51.8097000000
2427 2 126.3112761836 57.6303571429 48.6232000000
2428 1 127.4182636836 59.5478571429 49.5727000000
2429 2 129.6324493979 59.5478571429 48.6232000000
2430 1 130.7395422550 57.6303571429 49.5727000000
2431 2 0.1053571429 61.4653571429 52.7592000000
2432 1 1.2124500000 63.3828571429 51.8097000000
2433 2 3.4265303571 63.3828571429 52.7592000000
2434 1 4.5336232143 61.4653571429 51.8097000000
2435 2 0.1053571429 61.4653571429 48.6232000000
2436 1 1.2124500000 63.3828571429 49.5727000000
2437 2 3.4265303571 63.3828571429 48.6232000000
2438 1 4.5336232143 61.4653571429 49.5727000000
2439 2 0.1053571429 65.3003571429 52.7592000000
2440 1 1.2124500000 67.2178571429 51.8097000000
2441 2 3.4265303571 67.2178571429 52.7592000000
2442 1 4.5336232143 65.3003571429 51.8097000000
2443 2 0.1053571429 65.3003571429 48.6232000000
2444 1 1.2124500000 67.2178571429 49.5727000000
2445 2 3.4265303571 67.2178571429 48.6232000000
2446 1 4.5336232143 65.3003571429 49.5727000000
2447 2 6.7478089286 61.4653571429 52.7592000000
2448 1 7.8547964286 63.3828571429 51.8097000000
2449 2 10.0689821429 63.3828571429 52.7592000000
2450 1 11.1760750000 61.4653571429 51.8097000000
2451 2 6.7478089286 61.4653571429 48.6232000000
2452 1 7.8547964286 63.3828571429 49.5727000000
2453 2 10.0689821429 63.3828571429 48.6232000000
2454 1 11.1760750000 61.4653571429 49.5727000000
2455 1 7.8547964286 67.2178571429 51.8097000000
2456 2 10.0689821429 67.2178571429 52.7592000000
2457 1 11.1760750000 65.3003571429 51.8097000000
2458 2 6.7478089286 65.3003571429 48.6232000000
2459 1 7.8547964286 67.2178571429 49.5727000000
2460 2 10.0689821429 67.2178571429 48.6232000000
2461 1 11.1760750000 65.3003571429 49.5727000000
2462 2 13.3901868379 61.4653571429 52.7592000000
2463 1 14.4972796950 63.3828571429 51.8097000000
2464 2 16.7113600521 63.3828571429 52.7592000000
2465 1 17.8184529093 61.4653571429 51.8097000000
2466 2 13.3901868379 61.4653571429 48.6232000000
2467 1 14.4972796950 63.3828571429 49.5727000000
2468 2 16.7113600521 63.3828571429 48.6232000000
2469 1 17.8184529093 61.4653571429 49.5727000000
2470 2 13.3901868379 65.3003571429 52.7592000000
2471 1 14.4972796950 67.2178571429 51.8097000000
2472 2 16.7113600521 67.2178571429 52.7592000000
2473 1 17.8184529093 65.3003571429 51.8097000000
2474 2 13.3901868379 65.3003571429 48.6232000000
2475 1 14.4972796950 67.2178571429 49.5727000000
2476 1 17.8184529093 65.3003571429 49.5727000000
2477 2 20.0326386236 61.4653571429 52.7592000000
2478 1 21.1396261236 63.3828571429 51.8097000000
2479 1 24.4609046950 61.4653571429 51.8097000000
2480 2 20.0326386236 61.4653571429 48.6232000000
2481 1 21.1396261236 63.3828571429 49.5727000000
2482 2 23.3538118379 63.3828571429 48.6232000000
2483 1 24.4609046950 61.4653571429 49.5727000000
2484 2 20.0326386236 65.3003571429 52.7592000000
2485 1 21.1396261236 67.2178571429 51.8097000000
2486 2 23.3538118379 67.2178571429 52.7592000000
2487 1 24.4609046950 65.3003571429 51.8097000000
2488 2 20.0326386236 65.3003571429 48.6232000000
2489 1 21.1396261236 67.2178571429 49.5727000000
2490 2 23.3538118379 67.2178571429 48.6232000000
2491 1 24.4609046950 65.3003571429 49.5727000000
2492 2 26.6750165329 61.4653571429 52.7592000000
2493 1 27.7821093900 63.3828571429 51.8097000000
2494 2 29.9961897471 63.3828571429 52.7592000000
2495 1 31.1032826043 61.4653571429 51.8097000000
2496 2 26.6750165329 61.4653571429 48.6232000000
2497 1 27.7821093900 63.3828571429 49.5727000000
2498 1 31.1032826043 61.4653571429 49.5727000000
2499 2 26.6750165329 65.3003571429 52.7592000000
2500 1 27.7821093900 67.2178571429 51.8097000000
2501 2 29.9961897471 67.2178571429 52.7592000000
2502 1 31.1032826043 65.3003571429 51.8097000000
2503 2 26.6750165329 65.3003571429 48.6232000000
2504 1 27.7821093900 67.2178571429 49.5727000000
2505 2 29.9961897471 67.2178571429 48.6232000000
2506 1 31.1032826043 65.3003571429 49.5727000000
2507 2 33.3174683186 61.4653571429 52.7592000000
2508 1 34.4244558186 63.3828571429 51.8097000000
2509 1 37.7457343900 61.4653571429 51.8097000000
2510 2 33.3174683186 61.4653571429 48.6232000000
2511 1 34.4244558186 63.3828571429 49.5727000000
2512 2 36.6386415329 63.3828571429 48.6232000000
2513 1 37.7457343900 61.4653571429 49.5727000000
2514 2 33.3174683186 65.3003571429 52.7592000000
2515 1 34.4244558186 67.2178571429 51.8097000000
2516 2 36.6386415329 67.2178571429 52.7592000000
2517 1 37.7457343900 65.3003571429 51.8097000000
2518 2 33.3174683186 65.3003571429 48.6232000000
2519 1 34.4244558186 67.2178571429 49.5727000000
2520 2 36.6386415329 67.2178571429 48.6232000000
2521 1 37.7457343900 65.3003571429 49.5727000000
2522 2 39.9598462279 61.4653571429 52.7592000000
2523 1 41.0669390850 63.3828571429 51.8097000000
2524 2 43.2810194421 63.3828571429 52.7592000000
2525 1 44.3881122993 61.4653571429 51.8097000000
2526 2 39.9598462279 61.4653571429 48.6232000000
2527 1 41.0669390850 63.3828571429 49.5727000000
2528 2 43.2810194421 63.3828571429 48.6232000000
2529 1 44.3881122993 61.4653571429 49.5727000000
2530 2 39.9598462279 65.3003571429 52.7592000000
2531 1 41.0669390850 67.2178571429 51.8097000000
2532 2 43.2810194421 67.2178571429 52.7592000000
2533 1 44.3881122993 65.3003571429 51.8097000000
2534 2 39.9598462279 65.3003571429 48.6232000000
2535 1 41.0669390850 67.2178571429 49.5727000000
2536 2 43.2810194421 67.2178571429 48.6232000000
2537 1 44.3881122993 65.3003571429 49.5727000000
2538 2 46.6022980136 61.4653571429 52.7592000000
2539 1 47.7092855136 63.3828571429 51.8097000000
2540 2 49.9234712279 63.3828571429 52.7592000000
2541 1 51.0305640850 61.4653571429 51.8097000000
2542 2 46.6022980136 61.4653571429 48.6232000000
2543 1 47.7092855136 63.3828571429 49.5727000000
2544 2 49.9234712279 63.3828571429 48.6232000000
2545 1 51.0305640850 61.4653571429 49.5727000000
2546 2 46.6022980136 65.3003571429 52.7592000000
2547 1 47.7092855136 67.2178571429 51.8097000000
2548 2 49.9234712279 67.2178571429 52.7592000000
2549 1 51.0305640850 65.3003571429 51.8097000000
2550 1 47.7092855136 67.2178571429 49.5727000000
2551 2 49.9234712279 67.2178571429 48.6232000000
2552 1 51.0305640850 65.3003571429 49.5727000000
2553 2 53.2446759229 61.4653571429 52.7592000000
2554 1 54.3517687800 63.3828571429 51.8097000000
2555 2 56.5658491371 63.3828571429 52.7592000000
2556 1 57.6729419943 61.4653571429 51.8097000000
2557 2 53.2446759229 61.4653571429 48.6232000000
2558 1 54.3517687800 63.3828571429 49.5727000000
2559 2 56.5658491371 63.3828571429 48.6232000000
2560 1 57.6729419943 61.4653571429 49.5727000000
2561 2 53.2446759229 65.3003571429 52.7592000000
2562 1 54.3517687800 67.2178571429 51.8097000000
2563 2 56.5658491371 67.2178571429 52.7592000000
2564 1 57.6729419943 65.3003571429 51.8097000000
2565 1 54.3517687800 67.2178571429 49.5727000000
2566 2 56.5658491371 67.2178571429 48.6232000000
2567 1 57.6729419943 65.3003571429 49.5727000000
2568 2 59.8871277086 61.4653571429 52.7592000000
2569 1 60.9941152086 63.3828571429 51.8097000000
2570 2 63.2083009229 63.3828571429 52.7592000000
2571 1 64.3153937800 61.4653571429 51.8097000000
2572 2 59.8871277086 61.4653571429 48.6232000000
2573 1 60.9941152086 63.3828571429 49.5727000000
2574 2 63.2083009229 63.3828571429 48.6232000000
2575 1 64.3153937800 61.4653571429 49.5727000000
2576 1 60.9941152086 67.2178571429 51.8097000000
2577 2 63.2083009229 67.2178571429 52.7592000000
2578 1 64.3153937800 65.3003571429 51.8097000000
2579 2 59.8871277086 65.3003571429 48.6232000000
2580 1 60.9941152086 67.2178571429 49.5727000000
2581 2 63.2083009229 67.2178571429 48.6232000000
2582 1 64.3153937800 65.3003571429 49.5727000000
2583 2 66.5295056179 61.4653571429 52.7592000000
2584 1 67.6365984750 63.3828571429 51.8097000000
2585 2 69.8506788321 63.3828571429 52.7592000000
2586 1 70.9577716893 61.4653571429 51.8097000000
2587 2 66.5295056179 61.4653571429 48.6232000000
2588 1 67.6365984750 63.3828571429 49.5727000000
2589 2 69.8506788321 63.3828571429 48.6232000000
2590 1 70.9577716893 61.4653571429 49.5727000000
2591 2 66.5295056179 65.3003571429 52.7592000000
2592 1 67.6365984750 67.2178571429 51.8097000000
2593 2 69.8506788321 67.2178571429 52.7592000000
2594 1 70.9577716893 65.3003571429 51.8097000000
2595 1 67.6365984750 67.2178571429 49.5727000000
2596 2 69.8506788321 67.2178571429 48.6232000000
2597 1 70.9577716893 65.3003571429 49.5727000000
2598 2 73.1719574036 61.4653571429 52.7592000000
2599 1 74.2789449036 63.3828571429 51.8097000000
2600 2 76.4931306179 63.3828571429 52.7592000000
2601 1 77.6002234750 61.4653571429 51.8097000000
2602 2 73.1719574036 61.4653571429 48.6232000000
2603 1 74.2789449036 63.3828571429 49.5727000000
2604 2 76.4931306179 63.3828571429 48.6232000000
2605 1 77.6002234750 61.4653571429 49.5727000000
2606 2 73.1719574036 65.3003571429 52.7592000000
2607 1 74.2789449036 67.2178571429 51.8097000000
2608 2 76.4931306179 67.2178571429 52.7592000000
2609 1 77.6002234750 65.3003571429 51.8097000000
2610 2 73.1719574036 65.3003571429 48.6232000000
2611 1 74.2789449036 67.2178571429 49.5727000000
2612 2 76.4931306179 67.2178571429 48.6232000000
2613 1 77.6002234750 65.3003571429 49.5727000000
2614 1 80.9214281700 63.3828571429 51.8097000000
2615 2 83.1355085271 63.3828571429 52.7592000000
2616 1 84.2426013843 61.4653571429 51.8097000000
2617 2 79.8143353129 61.4653571429 48.6232000000
2618 1 80.9214281700 63.3828571429 49.5727000000
2619 2 83.1355085271 63.3828571429 48.6232000000
2620 1 84.2426013843 61.4653571429 49.5727000000
2621 2 79.8143353129 65.3003571429 52.7592000000
2622 1 80.9214281700 67.2178571429 51.8097000000
2623 2 83.1355085271 67.2178571429 52.7592000000
2624 1 84.2426013843 65.3003571429 51.8097000000
2625 2 79.8143353129 65.3003571429 48.6232000000
2626 1 80.9214281700 67.2178571429 49.5727000000
2627 2 83.1355085271 67.2178571429 48.6232000000
2628 1 84.2426013843 65.3003571429 49.5727000000
2629 2 86.4567870986 61.4653571429 52.7592000000
2630 1 87.5637745986 63.3828571429 51.8097000000
2631 1 90.8850531700 61.4653571429 51.8097000000
2632 2 86.4567870986 61.4653571429 48.6232000000
2633 1 87.5637745986 63.3828571429 49.5727000000
2634 2 89.7779603129 63.3828571429 48.6232000000
2635 1 90.8850531700 61.4653571429 49.5727000000
2636 2 86.4567870986 65.3003571429 52.7592000000
2637 1 87.5637745986 67.2178571429 51.8097000000
2638 2 89.7779603129 67.2178571429 52.7592000000
2639 1 90.8850531700 65.3003571429 51.8097000000
2640 2 86.4567870986 65.3003571429 48.6232000000
2641 1 87.5637745986 67.2178571429 49.5727000000
2642 2 89.7779603129 67.2178571429 48.6232000000
2643 1 90.8850531700 65.3003571429 49.5727000000
2644 2 93.0991650079 61.4653571429 52.7592000000
2645 1 94.2062578650 63.3828571429 51.8097000000
2646 2 96.4203382221 63.3828571429 52.7592000000
2647 1 97.5274310793 61.4653571429 51.8097000000
2648 2 93.0991650079 61.4653571429 48.6232000000
2649 1 94.2062578650 63.3828571429 49.5727000000
2650 2 96.4203382221 63.3828571429 48.6232000000
2651 1 97.5274310793 61.4653571429 49.5727000000
2652 2 93.0991650079 65.3003571429 52.7592000000
2653 1 94.2062578650 67.2178571429 51.8097000000
2654 2 96.4203382221 67.2178571429 52.7592000000
2655 1 97.5274310793 65.3003571429 51.8097000000
2656 2 93.0991650079 65.3003571429 48.6232000000
2657 1 94.2062578650 67.2178571429 49.5727000000
2658 2 96.4203382221 67.2178571429 48.6232000000
2659 1 97.5274310793 65.3003571429 49.5727000000
2660 2 99.7416167936 61.4653571429 52.7592000000
2661 1 100.8486042936 63.3828571429 51.8097000000
2662 2 103.0627900079 63.3828571429 52.7592000000
2663 1 104.1698828650 61.4653571429 51.8097000000
2664 2 99.7416167936 61.4653571429 48.6232000000
2665 1 100.8486042936 63.3828571429 49.5727000000
2666 2 103.0627900079 63.3828571429 48.6232000000
2667 1 104.1698828650 61.4653571429 49.5727000000
2668 1 100.8486042936 67.2178571429 51.8097000000
2669 2 103.0627900079 67.2178571429 52.7592000000
2670 1 104.1698828650 65.3003571429 51.8097000000
2671 2 99.7416167936 65.3003571429 48.6232000000
2672 1 100.8486042936 67.2178571429 49.5727000000
2673 2 103.0627900079 67.2178571429 48.6232000000
2674 1 104.1698828650 65.3003571429 49.5727000000
2675 2 106.3839947029 61.4653571429 52.7592000000
2676 1 107.4910875600 63.3828571429 51.8097000000
2677 2 109.7051679171 63.3828571429 52.7592000000
2678 1 110.8122607743 61.4653571429 51.8097000000
2679 1 107.4910875600 63.3828571429 49.5727000000
2680 2 109.7051679171 63.3828571429 48.6232000000
2681 1 110.8122607743 61.4653571429 49.5727000000
2682 2 106.3839947029 65.3003571429 52.7592000000
2683 1 107.4910875600 67.2178571429 51.8097000000
2684 1 110.8122607743 65.3003571429 51.8097000000
2685 2 106.3839947029 65.3003571429 48.6232000000
2686 1 107.4910875600 67.2178571429 49.5727000000
2687 2 109.7051679171 67.2178571429 48.6232000000
2688 1 110.8122607743 65.3003571429 49.5727000000
2689 2 113.0264464886 61.4653571429 52.7592000000
2690 1 114.1334339886 63.3828571429 51.8097000000
2691 2 116.3476197029 63.3828571429 52.7592000000
2692 1 117.4547125600 61.4653571429 51.8097000000
2693 2 113.0264464886 61.4653571429 48.6232000000
2694 1 114.1334339886 63.3828571429 49.5727000000
2695 2 116.3476197029 63.3828571429 48.6232000000
2696 1 117.4547125600 61.4653571429 49.5727000000
2697 2 113.0264464886 65.3003571429 52.7592000000
2698 1 114.1334339886 67.2178571429 51.8097000000
2699 2 116.3476197029 67.2178571429 52.7592000000
2700 1 117.4547125600 65.3003571429 51.8097000000
2701 2 113.0264464886 65.3003571429 48.6232000000
2702 1 114.1334339886 67.2178571429 49.5727000000
2703 2 116.3476197029 67.2178571429 48.6232000000
2704 1 117.4547125600 65.3003571429 49.5727000000
2705 2 119.6688243979 61.4653571429 52.7592000000
2706 1 120.7759172550 63.3828571429 51.8097000000
2707 2 122.9899976121 63.3828571429 52.7592000000
2708 1 124.0970904693 61.4653571429 51.8097000000
2709 2 119.6688243979 61.4653571429 48.6232000000
2710 1 120.7759172550 63.3828571429 49.5727000000
2711 2 122.9899976121 63.3828571429 48.6232000000
2712 1 124.0970904693 61.4653571429 49.5727000000
2713 1 120.7759172550 67.2178571429 51.8097000000
2714 2 122.9899976121 67.2178571429 52.7592000000
2715 1 124.0970904693 65.3003571429 51.8097000000
2716 2 119.6688243979 65.3003571429 48.6232000000
2717 1 120.7759172550 67.2178571429 49.5727000000
2718 2 122.9899976121 67.2178571429 48.6232000000
2719 1 124.0970904693 65.3003571429 49.5727000000
2720 2 126.3112761836 61.4653571429 52.7592000000
2721 1 127.4182636836 63.3828571429 51.8097000000
2722 2 129.6324493979 63.3828571429 52.7592000000
2723 1 130.7395422550 61.4653571429 51.8097000000
2724 2 126.3112761836 61.4653571429 48.6232000000
2725 1 127.4182636836 63.3828571429 49.5727000000
2726 2 129.6324493979 63.3828571429 48.6232000000
2727 1 130.7395422550 61.4653571429 49.5727000000
2728 2 126.3112761836 65.3003571429 52.7592000000
2729 1 127.4182636836 67.2178571429 51.8097000000
2730 2 129.6324493979 67.2178571429 52.7592000000
2731 1 130.7395422550 65.3003571429 51.8097000000
2732 2 126.3112761836 65.3003571429 48.6232000000
2733 1 127.4182636836 67.2178571429 49.5727000000
2734 1 130.7395422550 65.3003571429 49.5727000000
2735 2 0.1053571429 69.1353571429 52.7592000000
2736 1 1.2124500000 71.0528571429 51.8097000000
2737 2 3.4265303571 71.0528571429 52.7592000000
2738 1 4.5336232143 69.1353571429 51.8097000000
2739 2 0.1053571429 69.1353571429 48.6232000000
2740 1 1.2124500000 71.0528571429 49.5727000000
2741 1 4.5336232143 69.1353571429 49.5727000000
2742 2 0.1053571429 72.9703571429 52.7592000000
2743 1 1.2124500000 74.8878571429 51.8097000000
2744 2 3.4265303571 74.8878571429 52.7592000000
2745 1 4.5336232143 72.9703571429 51.8097000000
2746 2 0.1053571429 72.9703571429 48.6232000000
2747 1 1.2124500000 74.8878571429 49.5727000000
2748 2 3.4265303571 74.8878571429 48.6232000000
2749 1 4.5336232143 72.9703571429 49.5727000000
2750 2 6.7478089286 69.1353571429 52.7592000000
2751 1 7.8547964286 71.0528571429 51.8097000000
2752 2 10.0689821429 71.0528571429 52.7592000000
2753 1 11.1760750000 69.1353571429 51.8097000000
2754 2 6.7478089286 69.1353571429 48.6232000000
2755 1 7.8547964286 71.0528571429 49.5727000000
2756 2 10.0689821429 71.0528571429 48.6232000000
2757 1 11.1760750000 69.1353571429 49.5727000000
2758 2 6.7478089286 72.9703571429 52.7592000000
2759 1 7.8547964286 74.8878571429 51.8097000000
2760 1 11.1760750000 72.9703571429 51.8097000000
2761 2 6.7478089286 72.9703571429 48.6232000000
2762 1 7.8547964286 74.8878571429 49.5727000000
2763 2 10.0689821429 74.8878571429 48.6232000000
2764 1 11.1760750000 72.9703571429 49.5727000000
2765 2 13.3901868379 69.1353571429 52.7592000000
2766 1 14.4972796950 71.0528571429 51.8097000000
2767 2 16.7113600521 71.0528571429 52.7592000000
2768 1 17.8184529093 69.1353571429 51.8097000000
2769 2 13.3901868379 69.1353571429 48.6232000000
2770 1 14.4972796950 71.0528571429 49.5727000000
2771 2 16.7113600521 71.0528571429 48.6232000000
2772 1 17.8184529093 69.1353571429 49.5727000000
2773 2 13.3901868379 72.9703571429 52.7592000000
2774 1 14.4972796950 74.8878571429 51.8097000000
2775 2 16.7113600521 74.8878571429 52.7592000000
2776 1 17.8184529093 72.9703571429 51.8097000000
2777 2 13.3901868379 72.9703571429 48.6232000000
2778 1 14.4972796950 74.8878571429 49.5727000000
2779 1 17.8184529093 72.9703571429 49.5727000000
2780 2 20.0326386236 69.1353571429 52.7592000000
2781 1 21.1396261236 71.0528571429 51.8097000000
2782 2 23.3538118379 71.0528571429 52.7592000000
2783 1 24.4609046950 69.1353571429 51.8097000000
2784 2 20.0326386236 69.1353571429 48.6232000000
2785 1 21.1396261236 71.0528571429 49.5727000000
2786 2 23.3538118379 71.0528571429 48.6232000000
2787 1 24.4609046950 69.1353571429 49.5727000000
2788 2 20.0326386236 72.9703571429 52.7592000000
2789 1 21.1396261236 74.8878571429 51.8097000000
2790 2 23.3538118379 74.8878571429 52.7592000000
2791 1 24.4609046950 72.9703571429 51.8097000000
2792 2 20.0326386236 72.9703571429 48.6232000000
2793 1 21.1396261236 74.8878571429 49.5727000000
2794 1 24.4609046950 72.9703571429 49.5727000000
2795 2 26.6750165329 69.1353571429 52.7592000000
2796 1 27.7821093900 71.0528571429 51.8097000000
2797 2 29.9961897471 71.0528571429 52.7592000000
2798 1 31.1032826043 69.1353571429 51.8097000000
2799 2 26.6750165329 69.1353571429 48.6232000000
2800 1 27.7821093900 71.0528571429 49.5727000000
2801 2 29.9961897471 71.0528571429 48.6232000000
2802 1 31.1032826043 69.1353571429 49.5727000000
2803 2 26.6750165329 72.9703571429 52.7592000000
2804 1 27.7821093900 74.8878571429 51.8097000000
2805 1 31.1032826043 72.9703571429 51.8097000000
2806 2 26.6750165329 72.9703571429 48.6232000000
2807 1 27.7821093900 74.8878571429 49.5727000000
2808 2 29.9961897471 74.8878571429 48.6232000000
2809 1 31.1032826043 72.9703571429 49.5727000000
2810 2 33.3174683186 69.1353571429 52.7592000000
2811 1 34.4244558186 71.0528571429 51.8097000000
2812 2 36.6386415329 71.0528571429 52.7592000000
2813 1 37.7457343900 69.1353571429 51.8097000000
2814 2 33.3174683186 69.1353571429 48.6232000000
2815 1 34.4244558186 71.0528571429 49.5727000000
2816 2 36.6386415329 71.0528571429 48.6232000000
2817 1 37.7457343900 69.1353571429 49.5727000000
2818 2 33.3174683186 72.9703571429 52.7592000000
2819 1 34.4244558186 74.8878571429 51.8097000000
2820 2 36.6386415329 74.8878571429 52.7592000000
2821 1 37.7457343900 72.9703571429 51.8097000000
2822 2 33.3174683186 72.9703571429 48.6232000000
2823 1 34.4244558186 74.8878571429 49.5727000000
2824 2 36.6386415329 74.8878571429 48.6232000000
2825 1 37.7457343900 72.9703571429 49.5727000000
2826 2 39.9598462279 69.1353571429 52.7592000000
2827 1 41.0669390850 71.0528571429 51.8097000000
2828 2 43.2810194421 71.0528571429 52.7592000000
2829 1 44.3881122993 69.1353571429 51.8097000000
2830 1 41.0669390850 71.0528571429 49.5727000000
2831 2 43.2810194421 71.0528571429 48.6232000000
2832 1 44.3881122993 69.1353571429 49.5727000000
2833 2 39.9598462279 72.9703571429 52.7592000000
2834 1 41.0669390850 74.8878571429 51.8097000000
2835 2 43.2810194421 74.8878571429 52.7592000000
2836 1 44.3881122993 72.9703571429 51.8097000000
2837 2 39.9598462279 72.9703571429 48.6232000000
2838 1 41.0669390850 74.8878571429 49.5727000000
2839 1 44.3881122993 72.9703571429 49.5727000000
2840 2 46.6022980136 69.1353571429 52.7592000000
2841 1 47.7092855136 71.0528571429 51.8097000000
2842 2 49.9234712279 71.0528571429 52.7592000000
2843 1 51.0305640850 69.1353571429 51.8097000000
2844 2 46.6022980136 69.1353571429 48.6232000000
2845 1 47.7092855136 71.0528571429 49.5727000000
2846 1 51.0305640850 69.1353571429 49.5727000000
2847 2 46.6022980136 72.9703571429 52.7592000000
2848 1 47.7092855136 74.8878571429 51.8097000000
2849 2 49.9234712279 74.8878571429 52.7592000000
2850 1 51.0305640850 72.9703571429 51.8097000000
2851 2 46.6022980136 72.9703571429 48.6232000000
2852 1 47.7092855136 74.8878571429 49.5727000000
2853 2 49.9234712279 74.8878571429 48.6232000000
2854 1 51.0305640850 72.9703571429 49.5727000000
2855 2 53.2446759229 69.1353571429 52.7592000000
2856 1 54.3517687800 71.0528571429 51.8097000000
2857 1 57.6729419943 69.1353571429 51.8097000000
2858 2 53.2446759229 69.1353571429 48.6232000000
2859 1 54.3517687800 71.0528571429 49.5727000000
2860 2 56.5658491371 71.0528571429 48.6232000000
2861 1 57.6729419943 69.1353571429 49.5727000000
2862 2 53.2446759229 72.9703571429 52.7592000000
2863 1 54.3517687800 74.8878571429 51.8097000000
2864 2 56.5658491371 74.8878571429 52.7592000000
2865 1 57.6729419943 72.9703571429 51.8097000000
2866 2 53.2446759229 72.9703571429 48.6232000000
2867 1 54.3517687800 74.8878571429 49.5727000000
2868 2 56.5658491371 74.8878571429 48.6232000000
2869 1 57.6729419943 72.9703571429 49.5727000000
2870 2 59.8871277086 69.1353571429 52.7592000000
2871 1 60.9941152086 71.0528571429 51.8097000000
2872 2 63.2083009229 71.0528571429 52.7592000000
2873 1 64.3153937800 69.1353571429 51.8097000000
2874 2 59.8871277086 69.1353571429 48.6232000000
2875 1 60.9941152086 71.0528571429 49.5727000000
2876 2 63.2083009229 71.0528571429 48.6232000000
2877 1 64.3153937800 69.1353571429 49.5727000000
2878 2 59.8871277086 72.9703571429 52.7592000000
2879 1 60.9941152086 74.8878571429 51.8097000000
2880 2 63.2083009229 74.8878571429 52.7592000000
2881 1 64.3153937800 72.9703571429 51.8097000000
2882 2 59.8871277086 72.9703571429 48.6232000000
2883 1 60.9941152086 74.8878571429 49.5727000000
2884 1 64.3153937800 72.9703571429 49.5727000000
2885 2 66.5295056179 69.1353571429 52.7592000000
2886 1 67.6365984750 71.0528571429 51.8097000000
2887 2 69.8506788321 71.0528571429 52.7592000000
2888 1 70.9577716893 69.1353571429 51.8097000000
2889 2 66.5295056179 69.1353571429 48.6232000000
2890 1 67.6365984750 71.0528571429 49.5727000000
2891 2 69.8506788321 71.0528571429 48.6232000000
2892 1 70.9577716893 69.1353571429 49.5727000000
2893 2 66.5295056179 72.9703571429 52.7592000000
2894 1 67.6365984750 74.8878571429 51.8097000000
2895 1 70.9577716893 72.9703571429 51.8097000000
2896 2 66.5295056179 72.9703571429 48.6232000000
2897 1 67.6365984750 74.8878571429 49.5727000000
2898 2 69.8506788321 74.8878571429 48.6232000000
2899 1 70.9577716893 72.9703571429 49.5727000000
2900 2 73.1719574036 69.1353571429 52.7592000000
2901 1 74.2789449036 71.0528571429 51.8097000000
2902 2 76.4931306179 71.0528571429 52.7592000000
2903 1 77.6002234750 69.1353571429 51.8097000000
2904 1 74.2789449036 71.0528571429 49.5727000000
2905 2 76.4931306179 71.0528571429 48.6232000000
2906 1 77.6002234750 69.1353571429 49.5727000000
2907 2 73.1719574036 72.9703571429 52.7592000000
2908 1 74.2789449036 74.8878571429 51.8097000000
2909 2 76.4931306179 74.8878571429 52.7592000000
2910 1 77.6002234750 72.9703571429 51.8097000000
2911 2 73.1719574036 72.9703571429 48.6232000000
2912 1 74.2789449036 74.8878571429 49.5727000000
2913 1 77.6002234750 72.9703571429 49.5727000000
2914 2 79.8143353129 69.1353571429 52.7592000000
2915 1 80.9214281700 71.0528571429 51.8097000000
2916 2 83.1355085271 71.0528571429 52.7592000000
2917 1 84.2426013843 69.1353571429 51.8097000000
2918 1 80.9214281700 71.0528571429 49.5727000000
2919 2 83.1355085271 71.0528571429 48.6232000000
2920 1 84.2426013843 69.1353571429 49.5727000000
2921 2 79.8143353129 72.9703571429 52.7592000000
2922 1 80.9214281700 74.8878571429 51.8097000000
2923 1 84.2426013843 72.9703571429 51.8097000000
2924 2 79.8143353129 72.9703571429 48.6232000000
2925 1 80.9214281700 74.8878571429 49.5727000000
2926 2 83.1355085271 74.8878571429 48.6232000000
2927 1 84.2426013843 72.9703571429 49.5727000000
2928 2 86.4567870986 69.1353571429 52.7592000000
2929 1 87.5637745986 71.0528571429 51.8097000000
2930 2 89.7779603129 71.0528571429 52.7592000000
2931 1 90.8850531700 69.1353571429 51.8097000000
2932 2 86.4567870986 69.1353571429 48.6232000000
2933 1 87.5637745986 71.0528571429 49.5727000000
2934 2 89.7779603129 71.0528571429 48.6232000000
2935 1 90.8850531700 69.1353571429 49.5727000000
2936 2 86.4567870986 72.9703571429 52.7592000000
2937 1 87.5637745986 74.8878571429 51.8097000000
2938 2 89.7779603129 74.8878571429 52.7592000000
2939 1 90.8850531700 72.9703571429 51.8097000000
2940 2 86.4567870986 72.9703571429 48.6232000000
2941 1 87.5637745986 74.8878571429 49.5727000000
2942 2 89.7779603129 74.8878571429 48.6232000000
2943 1 90.8850531700 72.9703571429 49.5727000000
2944 2 93.0991650079 69.1353571429 52.7592000000
2945 1 94.2062578650 71.0528571429 51.8097000000
2946 2 96.4203382221 71.0528571429 52.7592000000
2947 1 97.5274310793 69.1353571429 51.8097000000
2948 2 93.0991650079 69.1353571429 48.6232000000
2949 1 94.2062578650 71.0528571429 49.5727000000
2950 1 97.5274310793 69.1353571429 49.5727000000
2951 2 93.0991650079 72.9703571429 52.7592000000
2952 1 94.2062578650 74.8878571429 51.8097000000
2953 2 96.4203382221 74.8878571429 52.7592000000
2954 1 97.5274310793 72.9703571429 51.8097000000
2955 2 93.0991650079 72.9703571429 48.6232000000
2956 1 94.2062578650 74.8878571429 49.5727000000
2957 2 96.4203382221 74.8878571429 48.6232000000
2958 1 97.5274310793 72.9703571429 49.5727000000
2959 2 99.7416167936 69.1353571429 52.7592000000
2960 1 100.8486042936 71.0528571429 51.8097000000
2961 1 104.1698828650 69.1353571429 51.8097000000
2962 2 99.7416167936 69.1353571429 48.6232000000
2963 1 100.8486042936 71.0528571429 49.5727000000
2964 2 103.0627900079 71.0528571429 48.6232000000
2965 1 104.1698828650 69.1353571429 49.5727000000
2966 2 99.7416167936 72.9703571429 52.7592000000
2967 1 100.8486042936 74.8878571429 51.8097000000
2968 2 103.0627900079 74.8878571429 52.7592000000
2969 1 104.1698828650 72.9703571429 51.8097000000
2970 2 99.7416167936 72.9703571429 48.6232000000
2971 1 100.8486042936 74.8878571429 49.5727000000
2972 2 103.0627900079 74.8878571429 48.6232000000
2973 1 104.1698828650 72.9703571429 49.5727000000
2974 2 106.3839947029 69.1353571429 52.7592000000
2975 1 107.4910875600 71.0528571429 51.8097000000
2976 2 109.7051679171 71.0528571429 52.7592000000
2977 1 110.8122607743 69.1353571429 51.8097000000
2978 2 106.3839947029 69.1353571429 48.6232000000
2979 1 107.4910875600 71.0528571429 49.5727000000
2980 2 109.7051679171 71.0528571429 48.6232000000
2981 1 110.8122607743 69.1353571429 49.5727000000
2982 2 106.3839947029 72.9703571429 52.7592000000
2983 1 107.4910875600 74.8878571429 51.8097000000
2984 2 109.7051679171 74.8878571429 52.7592000000
2985 1 110.8122607743 72.9703571429 51.8097000000
2986 2 106.3839947029 72.9703571429 48.6232000000
2987 1 107.4910875600 74.8878571429 49.5727000000
2988 2 109.7051679171 74.8878571429 48.6232000000
2989 1 110.8122607743 72.9703571429 49.5727000000
2990 2 113.0264464886 69.1353571429 52.7592000000
2991 1 114.1334339886 71.0528571429 51.8097000000
2992 2 116.3476197029 71.0528571429 52.7592000000
2993 1 117.4547125600 69.1353571429 51.8097000000
2994 2 113.0264464886 69.1353571429 48.6232000000
2995 1 114.1334339886 71.0528571429 49.5727000000
2996 2 116.3476197029 71.0528571429 48.6232000000
2997 1 117.4547125600 69.1353571429 49.5727000000
2998 1 114.1334339886 74.8878571429 51.8097000000
2999 2 116.3476197029 74.8878571429 52.7592000000
3000 1 117.4547125600 72.9703571429 51.8097000000
3001 2 113.0264464886 72.9703571429 48.6232000000
3002 1 114.1334339886 74.8878571429 49.5727000000
3003 2 116.3476197029 74.8878571429 48.6232000000
3004 1 117.4547125600 72.9703571429 49.5727000000
3005 2 119.6688243979 69.1353571429 52.7592000000
3006 1 120.7759172550 71.0528571429 51.8097000000
3007 2 122.9899976121 71.0528571429 52.7592000000
3008 1 124.0970904693 69.1353571429 51.8097000000
3009 2 119.6688243979 69.1353571429 48.6232000000
3010 1 120.7759172550 71.0528571429 49.5727000000
3011 2 122.9899976121 71.0528571429 48.6232000000
3012 1 124.0970904693 69.1353571429 49.5727000000
3013 2 119.6688243979 72.9703571429 52.7592000000
3014 1 120.7759172550 74.8878571429 51.8097000000
3015 2 122.9899976121 74.8878571429 52.7592000000
3016 1 124.0970904693 72.9703571429 51.8097000000
3017 1 120.7759172550 74.8878571429 49.5727000000
3018 2 122.9899976121 74.8878571429 48.6232000000
3019 1 124.0970904693 72.9703571429 49.5727000000
3020 2 126.3112761836 69.1353571429 52.7592000000
3021 1 127.4182636836 71.0528571429 51.8097000000
3022 2 129.6324493979 71.0528571429 52.7592000000
3023 1 130.7395422550 69.1353571429 51.8097000000
3024 2 126.3112761836 69.1353571429 48.6232000000
3025 1 127.4182636836 71.0528571429 49.5727000000
3026 2 129.6324493979 71.0528571429 48.6232000000
3027 1 130.7395422550 69.1353571429 49.5727000000
3028 2 126.3112761836 72.9703571429 52.7592000000
3029 1 127.4182636836 74.8878571429 51.8097000000
3030 2 129.6324493979 74.8878571429 52.7592000000
3031 1 130.7395422550 72.9703571429 51.8097000000
3032 2 126.3112761836 72.9703571429 48.6232000000
3033 1 127.4182636836 74.8878571429 49.5727000000
3034 2 129.6324493979 74.8878571429 48.6232000000
3035 1 130.7395422550 72.9703571429 49.5727000000
3036 2 0.1053571429 76.8053571429 52.7592000000
3037 1 1.2124500000 78.7228571429 51.8097000000
3038 2 3.4265303571 78.7228571429 52.7592000000
3039 1 4.5336232143 76.8053571429 51.8097000000
3040 2 0.1053571429 76.8053571429 48.6232000000
3041 1 1.2124500000 78.7228571429 49.5727000000
3042 2 3.4265303571 78.7228571429 48.6232000000
3043 1 4.5336232143 76.8053571429 49.5727000000
3044 1 1.2124500000 82.5578571429 51.8097000000
3045 2 3.4265303571 82.5578571429 52.7592000000
3046 1 4.5336232143 80.6403571429 51.8097000000
3047 2 0.1053571429 80.6403571429 48.6232000000
3048 1 1.2124500000 82.5578571429 49.5727000000
3049 2 3.4265303571 82.5578571429 48.6232000000
3050 1 4.5336232143 80.6403571429 49.5727000000
3051 2 6.7478089286 76.8053571429 52.7592000000
3052 1 7.8547964286 78.7228571429 51.8097000000
3053 2 10.0689821429 78.7228571429 52.7592000000
3054 1 11.1760750000 76.8053571429 51.8097000000
3055 2 6.7478089286 76.8053571429 48.6232000000
3056 1 7.8547964286 78.7228571429 49.5727000000
3057 2 10.0689821429 78.7228571429 48.6232000000
3058 1 11.1760750000 76.8053571429 49.5727000000
3059 2 6.7478089286 80.6403571429 52.7592000000
3060 1 7.8547964286 82.5578571429 51.8097000000
3061 2 10.0689821429 82.5578571429 52.7592000000
3062 1 11.1760750000 80.6403571429 51.8097000000
3063 1 7.8547964286 82.5578571429 49.5727000000
3064 2 10.0689821429 82.5578571429 48.6232000000
3065 1 11.1760750000 80.6403571429 49.5727000000
3066 2 13.3901868379 76.8053571429 52.7592000000
3067 1 14.4972796950 78.7228571429 51.8097000000
3068 2 16.7113600521 78.7228571429 52.7592000000
3069 1 17.8184529093 76.8053571429 51.8097000000
3070 2 13.3901868379 76.8053571429 48.6232000000
3071 1 14.4972796950 78.7228571429 49.5727000000
3072 2 16.7113600521 78.7228571429 48.6232000000
3073 1 17.8184529093 76.8053571429 49.5727000000
3074 1 14.4972796950 82.5578571429 51.8097000000
3075 2 16.7113600521 82.5578571429 52.7592000000
3076 1 17.8184529093 80.6403571429 51.8097000000
3077 2 13.3901868379 80.6403571429 48.6232000000
3078 1 14.4972796950 82.5578571429 49.5727000000
3079 2 16.7113600521 82.5578571429 48.6232000000
3080 1 17.8184529093 80.6403571429 49.5727000000
3081 2 20.0326386236 76.8053571429 52.7592000000
3082 1 21.1396261236 78.7228571429 51.8097000000
3083 2 23.3538118379 78.7228571429 52.7592000000
3084 1 24.4609046950 76.8053571429 51.8097000000
3085 2 20.0326386236 76.8053571429 48.6232000000
3086 1 21.1396261236 78.7228571429 49.5727000000
3087 2 23.3538118379 78.7228571429 48.6232000000
3088 1 24.4609046950 76.8053571429 49.5727000000
3089 2 20.0326386236 80.6403571429 52.7592000000
3090 1 21.1396261236 82.5578571429 51.8097000000
3091 2 23.3538118379 82.5578571429 52.7592000000
3092 1 24.4609046950 80.6403571429 51.8097000000
3093 2 20.0326386236 80.6403571429 48.6232000000
3094 1 21.1396261236 82.5578571429 49.5727000000
3095 1 24.4609046950 80.6403571429 49.5727000000
3096 2 26.6750165329 76.8053571429 52.7592000000
3097 1 27.7821093900 78.7228571429 51.8097000000
3098 2 29.9961897471 78.7228571429 52.7592000000
3099 1 31.1032826043 76.8053571429 51.8097000000
3100 2 26.6750165329 76.8053571429 48.6232000000
3101 1 27.7821093900 78.7228571429 49.5727000000
3102 2 29.9961897471 78.7228571429 48.6232000000
3103 1 31.1032826043 76.8053571429 49.5727000000
3104 2 26.6750165329 80.6403571429 52.7592000000
3105 1 27.7821093900 82.5578571429 51.8097000000
3106 2 29.9961897471 82.5578571429 52.7592000000
3107 1 31.1032826043 80.6403571429 51.8097000000
3108 2 26.6750165329 80.6403571429 48.6232000000
3109 1 27.7821093900 82.5578571429 49.5727000000
3110 2 29.9961897471 82.5578571429 48.6232000000
3111 1 31.1032826043 80.6403571429 49.5727000000
3112 2 33.3174683186 76.8053571429 52.7592000000
3113 1 34.4244558186 78.7228571429 51.8097000000
3114 2 36.6386415329 78.7228571429 52.7592000000
3115 1 37.7457343900 76.8053571429 51.8097000000
3116 2 33.3174683186 76.8053571429 48.6232000000
3117 1 34.4244558186 78.7228571429 49.5727000000
3118 2 36.6386415329 78.7228571429 48.6232000000
3119 1 37.7457343900 76.8053571429 49.5727000000
3120 2 33.3174683186 80.6403571429 52.7592000000
3121 1 34.4244558186 82.5578571429 51.8097000000
3122 2 36.6386415329 82.5578571429 52.7592000000
3123 1 37.7457343900 80.6403571429 51.8097000000
3124 2 33.3174683186 80.6403571429 48.6232000000
3125 1 34.4244558186 82.5578571429 49.5727000000
3126 2 36.6386415329 82.5578571429 48.6232000000
3127 1 37.7457343900 80.6403571429 49.5727000000
3128 2 39.9598462279 76.8053571429 52.7592000000
3129 1 41.0669390850 78.7228571429 51.8097000000
3130 2 43.2810194421 78.7228571429 52.7592000000
3131 1 44.3881122993 76.8053571429 51.8097000000
3132 2 39.9598462279 76.8053571429 48.6232000000
3133 1 41.0669390850 78.7228571429 49.5727000000
3134 2 43.2810194421 78.7228571429 48.6232000000
3135 1 44.3881122993 76.8053571429 49.5727000000
3136 2 39.9598462279 80.6403571429 52.7592000000
3137 1 41.0669390850 82.5578571429 51.8097000000
3138 2 43.2810194421 82.5578571429 52.7592000000
3139 1 44.3881122993 80.6403571429 51.8097000000
3140 2 39.9598462279 80.6403571429 48.6232000000
3141 1 41.0669390850 82.5578571429 49.5727000000
3142 2 43.2810194421 82.5578571429 48.6232000000
3143 1 44.3881122993 80.6403571429 49.5727000000
3144 2 46.6022980136 76.8053571429 52.7592000000
3145 1 47.7092855136 78.7228571429 51.8097000000
3146 2 49.9234712279 78.7228571429 52.7592000000
3147 1 51.0305640850 76.8053571429 51.8097000000
3148 2 46.6022980136 76.8053571429 48.6232000000
3149 1 47.7092855136 78.7228571429 49.5727000000
3150 2 49.9234712279 78.7228571429 48.6232000000
3151 1 51.0305640850 76.8053571429 49.5727000000
3152 1 47.7092855136 82.5578571429 51.8097000000
3153 2 49.9234712279 82.5578571429 52.7592000000
3154 1 51.0305640850 80.6403571429 51.8097000000
3155 2 46.6022980136 80.6403571429 48.6232000000
3156 1 47.7092855136 82.5578571429 49.5727000000
3157 2 49.9234712279 82.5578571429 48.6232000000
3158 1 51.0305640850 80.6403571429 49.5727000000
3159 2 53.2446759229 76.8053571429 52.7592000000
3160 1 54.3517687800 78.7228571429 51.8097000000
3161 2 56.5658491371 78.7228571429 52.7592000000
3162 1 57.6729419943 76.8053571429 51.8097000000
3163 1 54.3517687800 78.7228571429 49.5727000000
3164 2 56.5658491371 78.7228571429 48.6232000000
3165 1 57.6729419943 76.8053571429 49.5727000000
3166 2 53.2446759229 80.6403571429 52.7592000000
3167 1 54.3517687800 82.5578571429 51.8097000000
3168 2 56.5658491371 82.5578571429 52.7592000000
3169 1 57.6729419943 80.6403571429 51.8097000000
3170 2 53.2446759229 80.6403571429 48.6232000000
3171 1 54.3517687800 82.5578571429 49.5727000000
3172 2 56.5658491371 82.5578571429 48.6232000000
3173 1 57.6729419943 80.6403571429 49.5727000000
3174 2 59.8871277086 76.8053571429 52.7592000000
3175 1 60.9941152086 78.7228571429 51.8097000000
3176 2 63.2083009229 78.7228571429 52.7592000000
3177 1 64.3153937800 76.8053571429 51.8097000000
3178 2 59.8871277086 76.8053571429 48.6232000000
3179 1 60.9941152086 78.7228571429 49.5727000000
3180 2 63.2083009229 78.7228571429 48.6232000000
3181 1 64.3153937800 76.8053571429 49.5727000000
3182 1 60.9941152086 82.5578571429 51.8097000000
3183 2 63.2083009229 82.5578571429 52.7592000000
3184 1 64.3153937800 80.6403571429 51.8097000000
3185 2 59.8871277086 80.6403571429 48.6232000000
3186 1 60.9941152086 82.5578571429 49.5727000000
3187 2 63.2083009229 82.5578571429 48.6232000000
3188 1 64.3153937800 80.6403571429 49.5727000000
3189 2 66.5295056179 76.8053571429 52.7592000000
3190 1 67.6365984750 78.7228571429 51.8097000000
3191 2 69.8506788321 78.7228571429 52.7592000000
3192 1 70.9577716893 76.8053571429 51.8097000000
3193 2 66.5295056179 76.8053571429 48.6232000000
3194 1 67.6365984750 78.7228571429 49.5727000000
3195 2 69.8506788321 78.7228571429 48.6232000000
3196 1 70.9577716893 76.8053571429 49.5727000000
3197 1 67.6365984750 82.5578571429 51.8097000000
3198 2 69.8506788321 82.5578571429 52.7592000000
3199 1 70.9577716893 80.6403571429 51.8097000000
3200 2 66.5295056179 80.6403571429 48.6232000000
3201 1 67.6365984750 82.5578571429 49.5727000000
3202 2 69.8506788321 82.5578571429 48.6232000000
3203 1 70.9577716893 80.6403571429 49.5727000000
3204 2 73.1719574036 76.8053571429 52.7592000000
3205 1 74.2789449036 78.7228571429 51.8097000000
3206 2 76.4931306179 78.7228571429 52.7592000000
3207 1 77.6002234750 76.8053571429 51.8097000000
3208 2 73.1719574036 76.8053571429 48.6232000000
3209 1 74.2789449036 78.7228571429 49.5727000000
3210 2 76.4931306179 78.7228571429 48.6232000000
3211 1 77.6002234750 76.8053571429 49.5727000000
3212 2 73.1719574036 80.6403571429 52.7592000000
3213 1 74.2789449036 82.5578571429 51.8097000000
3214 1 77.6002234750 80.6403571429 51.8097000000
3215 2 73.1719574036 80.6403571429 48.6232000000
3216 1 74.2789449036 82.5578571429 49.5727000000
3217 2 76.4931306179 82.5578571429 48.6232000000
3218 1 77.6002234750 80.6403571429 49.5727000000
3219 2 79.8143353129 76.8053571429 52.7592000000
3220 1 80.9214281700 78.7228571429 51.8097000000
3221 2 83.1355085271 78.7228571429 52.7592000000
3222 1 84.2426013843 76.8053571429 51.8097000000
3223 2 79.8143353129 76.8053571429 48.6232000000
3224 1 80.9214281700 78.7228571429 49.5727000000
3225 2 83.1355085271 78.7228571429 48.6232000000
3226 1 84.2426013843 76.8053571429 49.5727000000
3227 2 79.8143353129 80.6403571429 52.7592000000
3228 1 80.9214281700 82.5578571429 51.8097000000
3229 2 83.1355085271 82.5578571429 52.7592000000
3230 1 84.2426013843 80.6403571429 51.8097000000
3231 2 79.8143353129 80.6403571429 48.6232000000
3232 1 80.9214281700 82.5578571429 49.5727000000
3233 2 83.1355085271 82.5578571429 48.6232000000
3234 1 84.2426013843 80.6403571429 49.5727000000
3235 2 86.4567870986 76.8053571429 52.7592000000
3236 1 87.5637745986 78.7228571429 51.8097000000
3237 1 90.8850531700 76.8053571429 51.8097000000
3238 2 86.4567870986 76.8053571429 48.6232000000
3239 1 87.5637745986 78.7228571429 49.5727000000
3240 2 89.7779603129 78.7228571429 48.6232000000
3241 1 90.8850531700 76.8053571429 49.5727000000
3242 2 86.4567870986 80.6403571429 52.7592000000
3243 1 87.5637745986 82.5578571429 51.8097000000
3244 2 89.7779603129 82.5578571429 52.7592000000
3245 1 90.8850531700 80.6403571429 51.8097000000
3246 2 86.4567870986 80.6403571429 48.6232000000
3247 1 87.5637745986 82.5578571429 49.5727000000
3248 2 89.7779603129 82.5578571429 48.6232000000
3249 1 90.8850531700 80.6403571429 49.5727000000
3250 2 93.0991650079 76.8053571429 52.7592000000
3251 1 94.2062578650 78.7228571429 51.8097000000
3252 2 96.4203382221 78.7228571429 52.7592000000
3253 1 97.5274310793 76.8053571429 51.8097000000
3254 2 93.0991650079 76.8053571429 48.6232000000
3255 1 94.2062578650 78.7228571429 49.5727000000
3256 2 96.4203382221 78.7228571429 48.6232000000
3257 1 97.5274310793 76.8053571429 49.5727000000
3258 2 93.0991650079 80.6403571429 52.7592000000
3259 1 94.2062578650 82.5578571429 51.8097000000
3260 1 97.5274310793 80.6403571429 51.8097000000
3261 2 93.0991650079 80.6403571429 48.6232000000
3262 1 94.2062578650 82.5578571429 49.5727000000
3263 2 96.4203382221 82.5578571429 48.6232000000
3264 1 97.5274310793 80.6403571429 49.5727000000
3265 2 99.7416167936 76.8053571429 52.7592000000
3266 1 100.8486042936 78.7228571429 51.8097000000
3267 2 103.0627900079 78.7228571429 52.7592000000
3268 1 104.1698828650 76.8053571429 51.8097000000
3269 1 100.8486042936 78.7228571429 49.5727000000
3270 2 103.0627900079 78.7228571429 48.6232000000
3271 1 104.1698828650 76.8053571429 49.5727000000
3272 2 99.7416167936 80.6403571429 52.7592000000
3273 1 100.8486042936 82.5578571429 51.8097000000
3274 2 103.0627900079 82.5578571429 52.7592000000
3275 1 104.1698828650 80.6403571429 51.8097000000
3276 2 99.7416167936 80.6403571429 48.6232000000
3277 1 100.8486042936 82.5578571429 49.5727000000
3278 2 103.0627900079 82.5578571429 48.6232000000
3279 1 104.1698828650 80.6403571429 49.5727000000
3280 1 107.4910875600 78.7228571429 51.8097000000
3281 2 109.7051679171 78.7228571429 52.7592000000
3282 1 110.8122607743 76.8053571429 51.8097000000
3283 2 106.3839947029 76.8053571429 48.6232000000
3284 1 107.4910875600 78.7228571429 49.5727000000
3285 2 109.7051679171 78.7228571429 48.6232000000
3286 1 110.8122607743 76.8053571429 49.5727000000
3287 2 106.3839947029 80.6403571429 52.7592000000
3288 1 107.4910875600 82.5578571429 51.8097000000
3289 2 109.7051679171 82.5578571429 52.7592000000
3290 1 110.8122607743 80.6403571429 51.8097000000
3291 2 106.3839947029 80.6403571429 48.6232000000
3292 1 107.4910875600 82.5578571429 49.5727000000
3293 2 109.7051679171 82.5578571429 48.6232000000
3294 1 110.8122607743 80.6403571429 49.5727000000
3295 2 113.0264464886 76.8053571429 52.7592000000
3296 1 114.1334339886 78.7228571429 51.8097000000
3297 1 117.4547125600 76.8053571429 51.8097000000
3298 2 113.0264464886 76.8053571429 48.6232000000
3299 1 114.1334339886 78.7228571429 49.5727000000
3300 2 116.3476197029 78.7228571429 48.6232000000
3301 1 117.4547125600 76.8053571429 49.5727000000
3302 2 113.0264464886 80.6403571429 52.7592000000
3303 1 114.1334339886 82.5578571429 51.8097000000
3304 2 116.3476197029 82.5578571429 52.7592000000
3305 1 117.4547125600 80.6403571429 51.8097000000
3306 2 113.0264464886 80.6403571429 48.6232000000
3307 1 114.1334339886 82.5578571429 49.5727000000
3308 2 116.3476197029 82.5578571429 48.6232000000
3309 1 117.4547125600 80.6403571429 49.5727000000
3310 2 119.6688243979 76.8053571429 52.7592000000
3311 1 120.7759172550 78.7228571429 51.8097000000
3312 2 122.9899976121 78.7228571429 52.7592000000
3313 1 124.0970904693 76.8053571429 51.8097000000
3314 2 119.6688243979 76.8053571429 48.6232000000
3315 1 120.7759172550 78.7228571429 49.5727000000
3316 2 122.9899976121 78.7228571429 48.6232000000
3317 1 124.0970904693 76.8053571429 49.5727000000
3318 2 119.6688243979 80.6403571429 52.7592000000
3319 1 120.7759172550 82.5578571429 51.8097000000
3320 2 122.9899976121 82.5578571429 52.7592000000
3321 1 124.0970904693 80.6403571429 51.8097000000
3322 2 119.6688243979 80.6403571429 48.6232000000
3323 1 120.7759172550 82.5578571429 49.5727000000
3324 2 122.9899976121 82.5578571429 48.6232000000
3325 1 124.0970904693 80.6403571429 49.5727000000
3326 2 126.3112761836 76.8053571429 52.7592000000
3327 1 127.4182636836 78.7228571429 51.8097000000
3328 2 129.6324493979 78.7228571429 52.7592000000
3329 1 130.7395422550 76.8053571429 51.8097000000
3330 2 126.3112761836 76.8053571429 48.6232000000
3331 1 127.4182636836 78.7228571429 49.5727000000
3332 2 129.6324493979 78.7228571429 48.6232000000
3333 1 130.7395422550 76.8053571429 49.5727000000
3334 2 126.3112761836 80.6403571429 52.7592000000
3335 1 127.4182636836 82.5578571429 51.8097000000
3336 2 129.6324493979 82.5578571429 52.7592000000
3337 1 130.7395422550 80.6403571429 51.8097000000
3338 1 127.4182636836 82.5578571429 49.5727000000
3339 2 129.6324493979 82.5578571429 48.6232000000
3340 1 130.7395422550 80.6403571429 49.5727000000
3341 2 0.1053571429 84.4753571429 52.7592000000
3342 1 1.2124500000 86.3928571429 51.8097000000
3343 2 3.4265303571 86.3928571429 52.7592000000
3344 1 4.5336232143 84.4753571429 51.8097000000
3345 2 0.1053571429 84.4753571429 48.6232000000
3346 1 1.2124500000 86.3928571429 49.5727000000
3347 2 3.4265303571 86.3928571429 48.6232000000
3348 1 4.5336232143 84.4753571429 49.5727000000
3349 2 0.1053571429 88.3103571429 52.7592000000
3350 1 1.2124500000 90.2278571429 51.8097000000
3351 2 3.4265303571 90.2278571429 52.7592000000
3352 1 4.5336232143 88.3103571429 51.8097000000
3353 2 0.1053571429 88.3103571429 48.6232000000
3354 1 1.2124500000 90.2278571429 49.5727000000
3355 2 3.4265303571 90.2278571429 48.6232000000
3356 1 4.5336232143 88.3103571429 49.5727000000
3357 2 6.7478089286 84.4753571429 52.7592000000
3358 1 7.8547964286 86.3928571429 51.8097000000
3359 2 10.0689821429 86.3928571429 52.7592000000
3360 1 11.1760750000 84.4753571429 51.8097000000
3361 2 6.7478089286 84.4753571429 48.6232000000
3362 1 7.8547964286 86.3928571429 49.5727000000
3363 1 11.1760750000 84.4753571429 49.5727000000
3364 2 6.7478089286 88.3103571429 52.7592000000
3365 1 7.8547964286 90.2278571429 51.8097000000
3366 2 10.0689821429 90.2278571429 52.7592000000
3367 1 11.1760750000 88.3103571429 51.8097000000
3368 2 6.7478089286 88.3103571429 48.6232000000
3369 1 7.8547964286 90.2278571429 49.5727000000
3370 2 10.0689821429 90.2278571429 48.6232000000
3371 1 11.1760750000 88.3103571429 49.5727000000
3372 2 13.3901868379 84.4753571429 52.7592000000
3373 1 14.4972796950 86.3928571429 51.8097000000
3374 2 16.7113600521 86.3928571429 52.7592000000
3375 1 17.8184529093 84.4753571429 51.8097000000
3376 2 13.3901868379 84.4753571429 48.6232000000
3377 1 14.4972796950 86.3928571429 49.5727000000
3378 2 16.7113600521 86.3928571429 48.6232000000
3379 1 17.8184529093 84.4753571429 49.5727000000
3380 2 13.3901868379 88.3103571429 52.7592000000
3381 1 14.4972796950 90.2278571429 51.8097000000
3382 2 16.7113600521 90.2278571429 52.7592000000
3383 1 17.8184529093 88.3103571429 51.8097000000
3384 2 13.3901868379 88.3103571429 48.6232000000
3385 1 14.4972796950 90.2278571429 49.5727000000
3386 2 16.7113600521 90.2278571429 48.6232000000
3387 1 17.8184529093 88.3103571429 49.5727000000
3388 2 20.0326386236 84.4753571429 52.7592000000
3389 1 21.1396261236 86.3928571429 51.8097000000
3390 2 23.3538118379 86.3928571429 52.7592000000
3391 1 24.4609046950 84.4753571429 51.8097000000
3392 2 20.0326386236 84.4753571429 48.6232000000
3393 1 21.1396261236 86.3928571429 49.5727000000
3394 2 23.3538118379 86.3928571429 48.6232000000
3395 1 24.4609046950 84.4753571429 49.5727000000
3396 2 20.0326386236 88.3103571429 52.7592000000
3397 1 21.1396261236 90.2278571429 51.8097000000
3398 2 23.3538118379 90.2278571429 52.7592000000
3399 1 24.4609046950 88.3103571429 51.8097000000
3400 1 21.1396261236 90.2278571429 49.5727000000
3401 2 23.3538118379 90.2278571429 48.6232000000
3402 1 24.4609046950 88.3103571429 49.5727000000
3403 2 26.6750165329 84.4753571429 52.7592000000
3404 1 27.7821093900 86.3928571429 51.8097000000
3405 2 29.9961897471 86.3928571429 52.7592000000
3406 1 31.1032826043 84.4753571429 51.8097000000
3407 2 26.6750165329 84.4753571429 48.6232000000
3408 1 27.7821093900 86.3928571429 49.5727000000
3409 1 31.1032826043 84.4753571429 49.5727000000
3410 2 26.6750165329 88.3103571429 52.7592000000
3411 1 27.7821093900 90.2278571429 51.8097000000
3412 2 29.9961897471 90.2278571429 52.7592000000
3413 1 31.1032826043 88.3103571429 51.8097000000
3414 2 26.6750165329 88.3103571429 48.6232000000
3415 1 27.7821093900 90.2278571429 49.5727000000
3416 2 29.9961897471 90.2278571429 48.6232000000
3417 1 31.1032826043 88.3103571429 49.5727000000
3418 2 33.3174683186 84.4753571429 52.7592000000
3419 1 34.4244558186 86.3928571429 51.8097000000
3420 1 37.7457343900 84.4753571429 51.8097000000
3421 2 33.3174683186 84.4753571429 48.6232000000
3422 1 34.4244558186 86.3928571429 49.5727000000
3423 2 36.6386415329 86.3928571429 48.6232000000
3424 1 37.7457343900 84.4753571429 49.5727000000
3425 2 33.3174683186 88.3103571429 52.7592000000
3426 1 34.4244558186 90.2278571429 51.8097000000
3427 2 36.6386415329 90.2278571429 52.7592000000
3428 1 37.7457343900 88.3103571429 51.8097000000
3429 2 33.3174683186 88.3103571429 48.6232000000
3430 1 34.4244558186 90.2278571429 49.5727000000
3431 2 36.6386415329 90.2278571429 48.6232000000
3432 1 37.7457343900 88.3103571429 49.5727000000
3433 2 39.9598462279 84.4753571429 52.7592000000
3434 1 41.0669390850 86.3928571429 51.8097000000
3435 2 43.2810194421 86.3928571429 52.7592000000
3436 1 44.3881122993 84.4753571429 51.8097000000
3437 2 39.9598462279 84.4753571429 48.6232000000
3438 1 41.0669390850 86.3928571429 49.5727000000
3439 1 44.3881122993 84.4753571429 49.5727000000
3440 2 39.9598462279 88.3103571429 52.7592000000
3441 1 41.0669390850 90.2278571429 51.8097000000
3442 2 43.2810194421 90.2278571429 52.7592000000
3443 1 44.3881122993 88.3103571429 51.8097000000
3444 2 39.9598462279 88.3103571429 48.6232000000
3445 1 41.0669390850 90.2278571429 49.5727000000
3446 2 43.2810194421 90.2278571429 48.6232000000
3447 1 44.3881122993 88.3103571429 49.5727000000
3448 2 46.6022980136 84.4753571429 52.7592000000
3449 1 47.7092855136 86.3928571429 51.8097000000
3450 2 49.9234712279 86.3928571429 52.7592000000
3451 1 51.0305640850 84.4753571429 51.8097000000
3452 2 46.6022980136 84.4753571429 48.6232000000
3453 1 47.7092855136 86.3928571429 49.5727000000
3454 1 51.0305640850 84.4753571429 49.5727000000
3455 2 46.6022980136 88.3103571429 52.7592000000
3456 1 47.7092855136 90.2278571429 51.8097000000
3457 2 49.9234712279 90.2278571429 52.7592000000
3458 1 51.0305640850 88.3103571429 51.8097000000
3459 2 46.6022980136 88.3103571429 48.6232000000
3460 1 47.7092855136 90.2278571429 49.5727000000
3461 2 49.9234712279 90.2278571429 48.6232000000
3462 1 51.0305640850 88.3103571429 49.5727000000
3463 2 53.2446759229 84.4753571429 52.7592000000
3464 1 54.3517687800 86.3928571429 51.8097000000
3465 2 56.5658491371 86.3928571429 52.7592000000
3466 1 57.6729419943 84.4753571429 51.8097000000
3467 2 53.2446759229 84.4753571429 48.6232000000
3468 1 54.3517687800 86.3928571429 49.5727000000
3469 2 56.5658491371 86.3928571429 48.6232000000
3470 1 57.6729419943 84.4753571429 49.5727000000
3471 2 53.2446759229 88.3103571429 52.7592000000
3472 1 54.3517687800 90.2278571429 51.8097000000
3473 2 56.5658491371 90.2278571429 52.7592000000
3474 1 57.6729419943 88.3103571429 51.8097000000
3475 2 53.2446759229 88.3103571429 48.6232000000
3476 1 54.3517687800 90.2278571429 49.5727000000
3477 2 56.5658491371 90.2278571429 48.6232000000
3478 1 57.6729419943 88.3103571429 49.5727000000
3479 2 59.8871277086 84.4753571429 52.7592000000
3480 1 60.9941152086 86.3928571429 51.8097000000
3481 2 63.2083009229 86.3928571429 52.7592000000
3482 1 64.3153937800 84.4753571429 51.8097000000
3483 2 59.8871277086 84.4753571429 48.6232000000
3484 1 60.9941152086 86.3928571429 49.5727000000
3485 2 63.2083009229 86.3928571429 48.6232000000
3486 1 64.3153937800 84.4753571429 49.5727000000
3487 2 59.8871277086 88.3103571429 52.7592000000
3488 1 60.9941152086 90.2278571429 51.8097000000
3489 2 63.2083009229 90.2278571429 52.7592000000
3490 1 64.3153937800 88.3103571429 51.8097000000
3491 2 59.8871277086 88.3103571429 48.6232000000
3492 1 60.9941152086 90.2278571429 49.5727000000
3493 1 64.3153937800 88.3103571429 49.5727000000
3494 2 66.5295056179 84.4753571429 52.7592000000
3495 1 67.6365984750 86.3928571429 51.8097000000
3496 2 69.8506788321 86.3928571429 52.7592000000
3497 1 70.9577716893 84.4753571429 51.8097000000
3498 2 66.5295056179 84.4753571429 48.6232000000
3499 1 67.6365984750 86.3928571429 49.5727000000
3500 2 69.8506788321 86.3928571429 48.6232000000
3501 1 70.9577716893 84.4753571429 49.5727000000
3502 2 66.5295056179 88.3103571429 52.7592000000
3503 1 67.6365984750 90.2278571429 51.8097000000
3504 2 69.8506788321 90.2278571429 52.7592000000
3505 1 70.9577716893 88.3103571429 51.8097000000
3506 2 66.5295056179 88.3103571429 48.6232000000
3507 1 67.6365984750 90.2278571429 49.5727000000
3508 2 69.8506788321 90.2278571429 48.6232000000
3509 1 70.9577716893 88.3103571429 49.5727000000
3510 2 73.1719574036 84.4753571429 52.7592000000
3511 1 74.2789449036 86.3928571429 51.8097000000
3512 2 76.4931306179 86.3928571429 52.7592000000
3513 1 77.6002234750 84.4753571429 51.8097000000
3514 2 73.1719574036 84.4753571429 48.6232000000
3515 1 74.2789449036 86.3928571429 49.5727000000
3516 2 76.4931306179 86.3928571429 48.6232000000
3517 1 77.6002234750 84.4753571429 49.5727000000
3518 2 73.1719574036 88.3103571429 52.7592000000
3519 1 74.2789449036 90.2278571429 51.8097000000
3520 2 76.4931306179 90.2278571429 52.7592000000
3521 1 77.6002234750 88.3103571429 51.8097000000
3522 1 74.2789449036 90.2278571429 49.5727000000
3523 2 76.4931306179 90.2278571429 48.6232000000
3524 1 77.6002234750 88.3103571429 49.5727000000
3525 2 79.8143353129 84.4753571429 52.7592000000
3526 1 80.9214281700 86.3928571429 51.8097000000
3527 2 83.1355085271 86.3928571429 52.7592000000
3528 1 84.2426013843 84.4753571429 51.8097000000
3529 2 79.8143353129 84.4753571429 48.6232000000
3530 1 80.9214281700 86.3928571429 49.5727000000
3531 2 83.1355085271 86.3928571429 48.6232000000
3532 1 84.2426013843 84.4753571429 49.5727000000
3533 2 79.8143353129 88.3103571429 52.7592000000
3534 1 80.9214281700 90.2278571429 51.8097000000
3535 2 83.1355085271 90.2278571429 52.7592000000
3536 1 84.2426013843 88.3103571429 51.8097000000
3537 2 79.8143353129 88.3103571429 48.6232000000
3538 1 80.9214281700 90.2278571429 49.5727000000
3539 2 83.1355085271 90.2278571429 48.6232000000
3540 1 84.2426013843 88.3103571429 49.5727000000
3541 2 86.4567870986 84.4753571429 52.7592000000
3542 1 87.5637745986 86.3928571429 51.8097000000
3543 2 89.7779603129 86.3928571429 52.7592000000
3544 1 90.8850531700 84.4753571429 51.8097000000
3545 2 86.4567870986 84.4753571429 48.6232000000
3546 1 87.5637745986 86.3928571429 49.5727000000
3547 2 89.7779603129 86.3928571429 48.6232000000
3548 1 90.8850531700 84.4753571429 49.5727000000
3549 1 87.5637745986 90.2278571429 51.8097000000
3550 2 89.7779603129 90.2278571429 52.7592000000
3551 1 90.8850531700 88.3103571429 51.8097000000
3552 2 86.4567870986 88.3103571429 48.6232000000
3553 1 87.5637745986 90.2278571429 49.5727000000
3554 2 89.7779603129 90.2278571429 48.6232000000
3555 1 90.8850531700 88.3103571429 49.5727000000
3556 2 93.0991650079 84.4753571429 52.7592000000
3557 1 94.2062578650 86.3928571429 51.8097000000
3558 2 96.4203382221 86.3928571429 52.7592000000
3559 1 97.5274310793 84.4753571429 51.8097000000
3560 2 93.0991650079 84.4753571429 48.6232000000
3561 1 94.2062578650 86.3928571429 49.5727000000
3562 2 96.4203382221 86.3928571429 48.6232000000
3563 1 97.5274310793 84.4753571429 49.5727000000
3564 2 93.0991650079 88.3103571429 52.7592000000
3565 1 94.2062578650 90.2278571429 51.8097000000
3566 2 96.4203382221 90.2278571429 52.7592000000
3567 1 97.5274310793 88.3103571429 51.8097000000
3568 1 94.2062578650 90.2278571429 49.5727000000
3569 2 96.4203382221 90.2278571429 48.6232000000
3570 1 97.5274310793 88.3103571429 49.5727000000
3571 2 99.7416167936 84.4753571429 52.7592000000
3572 1 100.8486042936 86.3928571429 51.8097000000
3573 2 103.0627900079 86.3928571429 52.7592000000
3574 1 104.1698828650 84.4753571429 51.8097000000
3575 2 99.7416167936 84.4753571429 48.6232000000
3576 1 100.8486042936 86.3928571429 49.5727000000
3577 2 103.0627900079 86.3928571429 48.6232000000
3578 1 104.1698828650 84.4753571429 49.5727000000
3579 2 99.7416167936 88.3103571429 52.7592000000
3580 1 100.8486042936 90.2278571429 51.8097000000
3581 2 103.0627900079 90.2278571429 52.7592000000
3582 1 104.1698828650 88.3103571429 51.8097000000
3583 2 99.7416167936 88.3103571429 48.6232000000
3584 1 100.8486042936 90.2278571429 49.5727000000
3585 2 103.0627900079 90.2278571429 48.6232000000
3586 1 104.1698828650 88.3103571429 49.5727000000
3587 2 106.3839947029 84.4753571429 52.7592000000
3588 1 107.4910875600 86.3928571429 51.8097000000
3589 2 109.7051679171 86.3928571429 52.7592000000
3590 1 110.8122607743 84.4753571429 51.8097000000
3591 1 107.4910875600 86.3928571429 49.5727000000
3592 2 109.7051679171 86.3928571429 48.6232000000
3593 1 110.8122607743 84.4753571429 49.5727000000
3594 2 106.3839947029 88.3103571429 52.7592000000
3595 1 107.4910875600 90.2278571429 51.8097000000
3596 2 109.7051679171 90.2278571429 52.7592000000
3597 1 110.8122607743 88.3103571429 51.8097000000
3598 2 106.3839947029 88.3103571429 48.6232000000
3599 1 107.4910875600 90.2278571429 49.5727000000
3600 1 110.8122607743 88.3103571429 49.5727000000
3601 2 113.0264464886 84.4753571429 52.7592000000
3602 1 114.1334339886 86.3928571429 51.8097000000
3603 2 116.3476197029 86.3928571429 52.7592000000
3604 1 117.4547125600 84.4753571429 51.8097000000
3605 1 114.1334339886 86.3928571429 49.5727000000
3606 2 116.3476197029 86.3928571429 48.6232000000
3607 1 117.4547125600 84.4753571429 49.5727000000
3608 2 113.0264464886 88.3103571429 52.7592000000
3609 1 114.1334339886 90.2278571429 51.8097000000
3610 2 116.3476197029 90.2278571429 52.7592000000
3611 1 117.4547125600 88.3103571429 51.8097000000
3612 2 113.0264464886 88.3103571429 48.6232000000
3613 1 114.1334339886 90.2278571429 49.5727000000
3614 1 117.4547125600 88.3103571429 49.5727000000
3615 2 119.6688243979 84.4753571429 52.7592000000
3616 1 120.7759172550 86.3928571429 51.8097000000
3617 2 122.9899976121 86.3928571429 52.7592000000
3618 1 124.0970904693 84.4753571429 51.8097000000
3619 1 120.7759172550 86.3928571429 49.5727000000
3620 2 122.9899976121 86.3928571429 48.6232000000
3621 1 124.0970904693 84.4753571429 49.5727000000
3622 2 119.6688243979 88.3103571429 52.7592000000
3623 1 120.7759172550 90.2278571429 51.8097000000
3624 2 122.9899976121 90.2278571429 52.7592000000
3625 1 124.0970904693 88.3103571429 51.8097000000
3626 2 119.6688243979 88.3103571429 48.6232000000
3627 1 120.7759172550 90.2278571429 49.5727000000
3628 2 122.9899976121 90.2278571429 48.6232000000
3629 1 124.0970904693 88.3103571429 49.5727000000
3630 2 126.3112761836 84.4753571429 52.7592000000
3631 1 127.4182636836 86.3928571429 51.8097000000
3632 2 129.6324493979 86.3928571429 52.7592000000
3633 1 130.7395422550 84.4753571429 51.8097000000
3634 2 126.3112761836 84.4753571429 48.6232000000
3635 1 127.4182636836 86.3928571429 49.5727000000
3636 2 129.6324493979 86.3928571429 48.6232000000
3637 1 130.7395422550 84.4753571429 49.5727000000
3638 1 127.4182636836 90.2278571429 51.8097000000
3639 2 129.6324493979 90.2278571429 52.7592000000
3640 1 130.7395422550 88.3103571429 51.8097000000
3641 2 126.3112761836 88.3103571429 48.6232000000
3642 1 127.4182636836 90.2278571429 49.5727000000
3643 2 129.6324493979 90.2278571429 48.6232000000
3644 1 130.7395422550 88.3103571429 49.5727000000
3645 2 0.1053571429 92.1453571429 52.7592000000
3646 1 1.2124500000 94.0628571429 51.8097000000
3647 2 3.4265303571 94.0628571429 52.7592000000
3648 1 4.5336232143 92.1453571429 51.8097000000
3649 2 0.1053571429 92.1453571429 48.6232000000
3650 1 1.2124500000 94.0628571429 49.5727000000
3651 2 3.4265303571 94.0628571429 48.6232000000
3652 1 4.5336232143 92.1453571429 49.5727000000
3653 2 0.1053571429 95.9803571429 52.7592000000
3654 1 1.2124500000 97.8978571429 51.8097000000
3655 2 3.4265303571 97.8978571429 52.7592000000
3656 1 4.5336232143 95.9803571429 51.8097000000
3657 2 0.1053571429 95.9803571429 48.6232000000
3658 1 1.2124500000 97.8978571429 49.5727000000
3659 2 3.4265303571 97.8978571429 48.6232000000
3660 1 4.5336232143 95.9803571429 49.5727000000
3661 2 6.7478089286 92.1453571429 52.7592000000
3662 1 7.8547964286 94.0628571429 51.8097000000
3663 2 10.0689821429 94.0628571429 52.7592000000
3664 1 11.1760750000 92.1453571429 51.8097000000
3665 1 7.8547964286 94.0628571429 49.5727000000
3666 2 10.0689821429 94.0628571429 48.6232000000
3667 1 11.1760750000 92.1453571429 49.5727000000
3668 2 6.7478089286 95.9803571429 52.7592000000
3669 1 7.8547964286 97.8978571429 51.8097000000
3670 2 10.0689821429 97.8978571429 52.7592000000
3671 1 11.1760750000 95.9803571429 51.8097000000
3672 2 6.7478089286 95.9803571429 48.6232000000
3673 1 7.8547964286 97.8978571429 49.5727000000
3674 2 10.0689821429 97.8978571429 48.6232000000
3675 1 11.1760750000 95.9803571429 49.5727000000
3676 2 13.3901868379 92.1453571429 52.7592000000
3677 1 14.4972796950 94.0628571429 51.8097000000
3678 2 16.7113600521 94.0628571429 52.7592000000
3679 1 17.8184529093 92.1453571429 51.8097000000
3680 2 13.3901868379 92.1453571429 48.6232000000
3681 1 14.4972796950 94.0628571429 49.5727000000
3682 2 16.7113600521 94.0628571429 48.6232000000
3683 1 17.8184529093 92.1453571429 49.5727000000
3684 2 13.3901868379 95.9803571429 52.7592000000
3685 1 14.4972796950 97.8978571429 51.8097000000
3686 2 16.7113600521 97.8978571429 52.7592000000
3687 1 17.8184529093 95.9803571429 51.8097000000
3688 2 13.3901868379 95.9803571429 48.6232000000
3689 1 14.4972796950 97.8978571429 49.5727000000
3690 2 16.7113600521 97.8978571429 48.6232000000
3691 1 17.8184529093 95.9803571429 49.5727000000
3692 2 20.0326386236 92.1453571429 52.7592000000
3693 1 21.1396261236 94.0628571429 51.8097000000
3694 2 23.3538118379 94.0628571429 52.7592000000
3695 1 24.4609046950 92.1453571429 51.8097000000
3696 2 20.0326386236 92.1453571429 48.6232000000
3697 1 21.1396261236 94.0628571429 49.5727000000
3698 2 23.3538118379 94.0628571429 48.6232000000
3699 1 24.4609046950 92.1453571429 49.5727000000
3700 1 21.1396261236 97.8978571429 51.8097000000
3701 2 23.3538118379 97.8978571429 52.7592000000
3702 1 24.4609046950 95.9803571429 51.8097000000
3703 2 20.0326386236 95.9803571429 48.6232000000
3704 1 21.1396261236 97.8978571429 49.5727000000
3705 2 23.3538118379 97.8978571429 48.6232000000
3706 1 24.4609046950 95.9803571429 49.5727000000
3707 2 26.6750165329 92.1453571429 52.7592000000
3708 1 27.7821093900 94.0628571429 51.8097000000
3709 2 29.9961897471 94.0628571429 52.7592000000
3710 1 31.1032826043 92.1453571429 51.8097000000
3711 2 26.6750165329 92.1453571429 48.6232000000
3712 1 27.7821093900 94.0628571429 49.5727000000
3713 2 29.9961897471 94.0628571429 48.6232000000
3714 1 31.1032826043 92.1453571429 49.5727000000
3715 1 27.7821093900 97.8978571429 51.8097000000
3716 2 29.9961897471 97.8978571429 52.7592000000
3717 1 31.1032826043 95.9803571429 51.8097000000
3718 2 26.6750165329 95.9803571429 48.6232000000
3719 1 27.7821093900 97.8978571429 49.5727000000
3720 2 29.9961897471 97.8978571429 48.6232000000
3721 1 31.1032826043 95.9803571429 49.5727000000
3722 2 33.3174683186 92.1453571429 52.7592000000
3723 1 34.4244558186 94.0628571429 51.8097000000
3724 2 36.6386415329 94.0628571429 52.7592000000
3725 1 37.7457343900 92.1453571429 51.8097000000
3726 2 33.3174683186 92.1453571429 48.6232000000
3727 1 34.4244558186 94.0628571429 49.5727000000
3728 2 36.6386415329 94.0628571429 48.6232000000
3729 1 37.7457343900 92.1453571429 49.5727000000
3730 1 34.4244558186 97.8978571429 51.8097000000
3731 2 36.6386415329 97.8978571429 52.7592000000
3732 1 37.7457343900 95.9803571429 51.8097000000
3733 2 33.3174683186 95.9803571429 48.6232000000
3734 1 34.4244558186 97.8978571429 49.5727000000
3735 2 36.6386415329 97.8978571429 48.6232000000
3736 1 37.7457343900 95.9803571429 49.5727000000
3737 2 39.9598462279 92.1453571429 52.7592000000
3738 1 41.0669390850 94.0628571429 51.8097000000
3739 2 43.2810194421 94.0628571429 52.7592000000
3740 1 44.3881122993 92.1453571429 51.8097000000
3741 2 39.9598462279 92.1453571429 48.6232000000
3742 1 41.0669390850 94.0628571429 49.5727000000
3743 2 43.2810194421 94.0628571429 48.6232000000
3744 1 44.3881122993 92.1453571429 49.5727000000
3745 2 39.9598462279 95.9803571429 52.7592000000
3746 1 41.0669390850 97.8978571429 51.8097000000
3747 2 43.2810194421 97.8978571429 52.7592000000
3748 1 44.3881122993 95.9803571429 51.8097000000
3749 2 39.9598462279 95.9803571429 48.6232000000
3750 1 41.0669390850 97.8978571429 49.5727000000
3751 2 43.2810194421 97.8978571429 48.6232000000
3752 1 44.3881122993 95.9803571429 49.5727000000
3753 2 46.6022980136 92.1453571429 52.7592000000
3754 1 47.7092855136 94.0628571429 51.8097000000
3755 2 49.9234712279 94.0628571429 52.7592000000
3756 1 51.0305640850 92.1453571429 51.8097000000
3757 2 46.6022980136 92.1453571429 48.6232000000
3758 1 47.7092855136 94.0628571429 49.5727000000
3759 2 49.9234712279 94.0628571429 48.6232000000
3760 1 51.0305640850 92.1453571429 49.5727000000
3761 2 46.6022980136 95.9803571429 52.7592000000
3762 1 47.7092855136 97.8978571429 51.8097000000
3763 2 49.9234712279 97.8978571429 52.7592000000
3764 1 51.0305640850 95.9803571429 51.8097000000
3765 1 47.7092855136 97.8978571429 49.5727000000
3766 2 49.9234712279 97.8978571429 48.6232000000
3767 1 51.0305640850 95.9803571429 49.5727000000
3768 2 53.2446759229 92.1453571429 52.7592000000
3769 1 54.3517687800 94.0628571429 51.8097000000
3770 1 57.6729419943 92.1453571429 51.8097000000
3771 2 53.2446759229 92.1453571429 48.6232000000
3772 1 54.3517687800 94.0628571429 49.5727000000
3773 2 56.5658491371 94.0628571429 48.6232000000
3774 1 57.6729419943 92.1453571429 49.5727000000
3775 2 53.2446759229 95.9803571429 52.7592000000
3776 1 54.3517687800 97.8978571429 51.8097000000
3777 2 56.5658491371 97.8978571429 52.7592000000
3778 1 57.6729419943 95.9803571429 51.8097000000
3779 2 53.2446759229 95.9803571429 48.6232000000
3780 1 54.3517687800 97.8978571429 49.5727000000
3781 2 56.5658491371 97.8978571429 48.6232000000
3782 1 57.6729419943 95.9803571429 49.5727000000
3783 2 59.8871277086 92.1453571429 52.7592000000
3784 1 60.9941152086 94.0628571429 51.8097000000
3785 2 63.2083009229 94.0628571429 52.7592000000
3786 1 64.3153937800 92.1453571429 51.8097000000
3787 2 59.8871277086 92.1453571429 48.6232000000
3788 1 60.9941152086 94.0628571429 49.5727000000
3789 2 63.2083009229 94.0628571429 48.6232000000
3790 1 64.3153937800 92.1453571429 49.5727000000
3791 2 59.8871277086 95.9803571429 52.7592000000
3792 1 60.9941152086 97.8978571429 51.8097000000
3793 2 63.2083009229 97.8978571429 52.7592000000
3794 1 64.3153937800 95.9803571429 51.8097000000
3795 2 59.8871277086 95.9803571429 48.6232000000
3796 1 60.9941152086 97.8978571429 49.5727000000
3797 2 63.2083009229 97.8978571429 48.6232000000
3798 1 64.3153937800 95.9803571429 49.5727000000
3799 2 66.5295056179 92.1453571429 52.7592000000
3800 1 67.6365984750 94.0628571429 51.8097000000
3801 2 69.8506788321 94.0628571429 52.7592000000
3802 1 70.9577716893 92.1453571429 51.8097000000
3803 2 66.5295056179 92.1453571429 48.6232000000
3804 1 67.6365984750 94.0628571429 49.5727000000
3805 2 69.8506788321 94.0628571429 48.6232000000
3806 1 70.9577716893 92.1453571429 49.5727000000
3807 2 66.5295056179 95.9803571429 52.7592000000
3808 1 67.6365984750 97.8978571429 51.8097000000
3809 2 69.8506788321 97.8978571429 52.7592000000
3810 1 70.9577716893 95.9803571429 51.8097000000
3811 1 67.6365984750 97.8978571429 49.5727000000
3812 2 69.8506788321 97.8978571429 48.6232000000
3813 1 70.9577716893 95.9803571429 49.5727000000
3814 2 73.1719574036 92.1453571429 52.7592000000
3815 1 74.2789449036 94.0628571429 51.8097000000
3816 2 76.4931306179 94.0628571429 52.7592000000
3817 1 77.6002234750 92.1453571429 51.8097000000
3818 2 73.1719574036 92.1453571429 48.6232000000
3819 1 74.2789449036 94.0628571429 49.5727000000
3820 1 77.6002234750 92.1453571429 49.5727000000
3821 2 73.1719574036 95.9803571429 52.7592000000
3822 1 74.2789449036 97.8978571429 51.8097000000
3823 2 76.4931306179 97.8978571429 52.7592000000
3824 1 77.6002234750 95.9803571429 51.8097000000
3825 2 73.1719574036 95.9803571429 48.6232000000
3826 1 74.2789449036 97.8978571429 49.5727000000
3827 2 76.4931306179 97.8978571429 48.6232000000
3828 1 77.6002234750 95.9803571429 49.5727000000
3829 2 79.8143353129 92.1453571429 52.7592000000
3830 1 80.9214281700 94.0628571429 51.8097000000
3831 2 83.1355085271 94.0628571429 52.7592000000
3832 1 84.2426013843 92.1453571429 51.8097000000
3833 2 79.8143353129 92.1453571429 48.6232000000
3834 1 80.9214281700 94.0628571429 49.5727000000
3835 2 83.1355085271 94.0628571429 48.6232000000
3836 1 84.2426013843 92.1453571429 49.5727000000
3837 2 79.8143353129 95.9803571429 52.7592000000
3838 1 80.9214281700 97.8978571429 51.8097000000
3839 2 83.1355085271 97.8978571429 52.7592000000
3840 1 84.2426013843 95.9803571429 51.8097000000
3841 2 79.8143353129 95.9803571429 48.6232000000
3842 1 80.9214281700 97.8978571429 49.5727000000
3843 2 83.1355085271 97.8978571429 48.6232000000
3844 1 84.2426013843 95.9803571429 49.5727000000
3845 2 86.4567870986 92.1453571429 52.7592000000
3846 1 87.5637745986 94.0628571429 51.8097000000
3847 2 89.7779603129 94.0628571429 52.7592000000
3848 1 90.8850531700 92.1453571429 51.8097000000
3849 2 86.4567870986 92.1453571429 48.6232000000
3850 1 87.5637745986 94.0628571429 49.5727000000
3851 2 89.7779603129 94.0628571429 48.6232000000
3852 1 90.8850531700 92.1453571429 49.5727000000
3853 1 87.5637745986 97.8978571429 51.8097000000
3854 2 89.7779603129 97.8978571429 52.7592000000
3855 1 90.8850531700 95.9803571429 51.8097000000
3856 2 86.4567870986 95.9803571429 48.6232000000
3857 1 87.5637745986 97.8978571429 49.5727000000
3858 2 89.7779603129 97.8978571429 48.6232000000
3859 1 90.8850531700 95.9803571429 49.5727000000
3860 2 93.0991650079 92.1453571429 52.7592000000
3861 1 94.2062578650 94.0628571429 51.8097000000
3862 2 96.4203382221 94.0628571429 52.7592000000
3863 1 97.5274310793 92.1453571429 51.8097000000
3864 2 93.0991650079 92.1453571429 48.6232000000
3865 1 94.2062578650 94.0628571429 49.5727000000
3866 2 96.4203382221 94.0628571429 48.6232000000
3867 1 97.5274310793 92.1453571429 49.5727000000
3868 2 93.0991650079 95.9803571429 52.7592000000
3869 1 94.2062578650 97.8978571429 51.8097000000
3870 2 96.4203382221 97.8978571429 52.7592000000
3871 1 97.5274310793 95.9803571429 51.8097000000
3872 1 94.2062578650 97.8978571429 49.5727000000
3873 2 96.4203382221 97.8978571429 48.6232000000
3874 1 97.5274310793 95.9803571429 49.5727000000
3875 1 100.8486042936 94.0628571429 51.8097000000
3876 2 103.0627900079 94.0628571429 52.7592000000
3877 1 104.1698828650 92.1453571429 51.8097000000
3878 2 99.7416167936 92.1453571429 48.6232000000
3879 1 100.8486042936 94.0628571429 49.5727000000
3880 2 103.0627900079 94.0628571429 48.6232000000
3881 1 104.1698828650 92.1453571429 49.5727000000
3882 2 99.7416167936 95.9803571429 52.7592000000
3883 1 100.8486042936 97.8978571429 51.8097000000
3884 2 103.0627900079 97.8978571429 52.7592000000
3885 1 104.1698828650 95.9803571429 51.8097000000
3886 2 99.7416167936 95.9803571429 48.6232000000
3887 1 100.8486042936 97.8978571429 49.5727000000
3888 2 103.0627900079 97.8978571429 48.6232000000
3889 1 104.1698828650 95.9803571429 49.5727000000
3890 2 106.3839947029 92.1453571429 52.7592000000
3891 1 107.4910875600 94.0628571429 51.8097000000
3892 2 109.7051679171 94.0628571429 52.7592000000
3893 1 110.8122607743 92.1453571429 51.8097000000
3894 2 106.3839947029 92.1453571429 48.6232000000
3895 1 107.4910875600 94.0628571429 49.5727000000
3896 2 109.7051679171 94.0628571429 48.6232000000
3897 1 110.8122607743 92.1453571429 49.5727000000
3898 1 107.4910875600 97.8978571429 51.8097000000
3899 2 109.7051679171 97.8978571429 52.7592000000
3900 1 110.8122607743 95.9803571429 51.8097000000
3901 2 106.3839947029 95.9803571429 48.6232000000
3902 1 107.4910875600 97.8978571429 49.5727000000
3903 2 109.7051679171 97.8978571429 48.6232000000
3904 1 110.8122607743 95.9803571429 49.5727000000
3905 2 113.0264464886 92.1453571429 52.7592000000
3906 1 114.1334339886 94.0628571429 51.8097000000
3907 2 116.3476197029 94.0628571429 52.7592000000
3908 1 117.4547125600 92.1453571429 51.8097000000
3909 2 113.0264464886 92.1453571429 48.6232000000
3910 1 114.1334339886 94.0628571429 49.5727000000
3911 2 116.3476197029 94.0628571429 48.6232000000
3912 1 117.4547125600 92.1453571429 49.5727000000
3913 2 113.0264464886 95.9803571429 52.7592000000
3914 1 114.1334339886 97.8978571429 51.8097000000
3915 1 117.4547125600 95.9803571429 51.8097000000
3916 2 113.0264464886 95.9803571429 48.6232000000
3917 1 114.1334339886 97.8978571429 49.5727000000
3918 2 116.3476197029 97.8978571429 48.6232000000
3919 1 117.4547125600 95.9803571429 49.5727000000
3920 2 119.6688243979 92.1453571429 52.7592000000
3921 1 120.7759172550 94.0628571429 51.8097000000
3922 2 122.9899976121 94.0628571429 52.7592000000
3923 1 124.0970904693 92.1453571429 51.8097000000
3924 2 119.6688243979 92.1453571429 48.6232000000
3925 1 120.7759172550 94.0628571429 49.5727000000
3926 1 124.0970904693 92.1453571429 49.5727000000
3927 2 119.6688243979 95.9803571429 52.7592000000
3928 1 120.7759172550 97.8978571429 51.8097000000
3929 2 122.9899976121 97.8978571429 52.7592000000
3930 1 124.0970904693 95.9803571429 51.8097000000
3931 2 119.6688243979 95.9803571429 48.6232000000
3932 1 120.7759172550 97.8978571429 49.5727000000
3933 2 122.9899976121 97.8978571429 48.6232000000
3934 1 124.0970904693 95.9803571429 49.5727000000
3935 2 126.3112761836 92.1453571429 52.7592000000
3936 1 127.4182636836 94.0628571429 51.8097000000
3937 1 130.7395422550 92.1453571429 51.8097000000
3938 2 126.3112761836 92.1453571429 48.6232000000
3939 1 127.4182636836 94.0628571429 49.5727000000
3940 2 129.6324493979 94.0628571429 48.6232000000
3941 1 130.7395422550 92.1453571429 49.5727000000
3942 2 126.3112761836 95.9803571429 52.7592000000
3943 1 127.4182636836 97.8978571429 51.8097000000
3944 2 129.6324493979 97.8978571429 52.7592000000
3945 1 130.7395422550 95.9803571429 51.8097000000
3946 2 126.3112761836 95.9803571429 48.6232000000
3947 1 127.4182636836 97.8978571429 49.5727000000
3948 2 129.6324493979 97.8978571429 48.6232000000
3949 1 130.7395422550 95.9803571429 49.5727000000
3950 2 0.1053571429 99.8153571429 52.7592000000
3951 1 1.2124500000 101.7328571429 51.8097000000
3952 2 3.4265303571 101.7328571429 52.7592000000
3953 1 4.5336232143 99.8153571429 51.8097000000
3954 2 0.1053571429 99.8153571429 48.6232000000
3955 1 1.2124500000 101.7328571429 49.5727000000
3956 1 4.5336232143 99.8153571429 49.5727000000
3957 2 0.1053571429 103.6503571429 52.7592000000
3958 1 1.2124500000 105.5678571429 51.8097000000
3959 2 3.4265303571 105.5678571429 52.7592000000
3960 1 4.5336232143 103.6503571429 51.8097000000
3961 2 0.1053571429 103.6503571429 48.6232000000
3962 1 1.2124500000 105.5678571429 49.5727000000
3963 2 3.4265303571 105.5678571429 48.6232000000
3964 1 4.5336232143 103.6503571429 49.5727000000
3965 2 6.7478089286 99.8153571429 52.7592000000
3966 1 7.8547964286 101.7328571429 51.8097000000
3967 2 10.0689821429 101.7328571429 52.7592000000
3968 1 11.1760750000 99.8153571429 51.8097000000
3969 2 6.7478089286 99.8153571429 48.6232000000
3970 1 7.8547964286 101.7328571429 49.5727000000
3971 2 10.0689821429 101.7328571429 48.6232000000
3972 1 11.1760750000 99.8153571429 49.5727000000
3973 2 6.7478089286 103.6503571429 52.7592000000
3974 1 7.8547964286 105.5678571429 51.8097000000
3975 2 10.0689821429 105.5678571429 52.7592000000
3976 1 11.1760750000 103.6503571429 51.8097000000
3977 2 6.7478089286 103.6503571429 48.6232000000
3978 1 7.8547964286 105.5678571429 49.5727000000
3979 2 10.0689821429 105.5678571429 48.6232000000
3980 1 11.1760750000 103.6503571429 49.5727000000
3981 2 13.3901868379 99.8153571429 52.7592000000
3982 1 14.4972796950 101.7328571429 51.8097000000
3983 2 16.7113600521 101.7328571429 52.7592000000
3984 1 17.8184529093 99.8153571429 51.8097000000
3985 2 13.3901868379 99.8153571429 48.6232000000
3986 1 14.4972796950 101.7328571429 49.5727000000
3987 2 16.7113600521 101.7328571429 48.6232000000
3988 1 17.8184529093 99.8153571429 49.5727000000
3989 1 14.4972796950 105.5678571429 51.8097000000
3990 2 16.7113600521 105.5678571429 52.7592000000
3991 1 17.8184529093 103.6503571429 51.8097000000
3992 2 13.3901868379 103.6503571429 48.6232000000
3993 1 14.4972796950 105.5678571429 49.5727000000
3994 2 16.7113600521 105.5678571429 48.6232000000
3995 1 17.8184529093 103.6503571429 49.5727000000
3996 2 20.0326386236 99.8153571429 52.7592000000
3997 1 21.1396261236 101.7328571429 51.8097000000
3998 2 23.3538118379 101.7328571429 52.7592000000
3999 1 24.4609046950 99.8153571429 51.8097000000
4000 2 20.0326386236 99.8153571429 48.6232000000
4001 1 21.1396261236 101.7328571429 49.5727000000
4002 2 23.3538118379 101.7328571429 48.6232000000
4003 1 24.4609046950 99.8153571429 49.5727000000
4004 2 20.0326386236 103.6503571429 52.7592000000
4005 1 21.1396261236 105.5678571429 51.8097000000
4006 2 23.3538118379 105.5678571429 52.7592000000
4007 1 24.4609046950 103.6503571429 51.8097000000
4008 2 20.0326386236 103.6503571429 48.6232000000
4009 1 21.1396261236 105.5678571429 49.5727000000
4010 2 23.3538118379 105.5678571429 48.6232000000
4011 1 24.4609046950 103.6503571429 49.5727000000
4012 2 26.6750165329 99.8153571429 52.7592000000
4013 1 27.7821093900 101.7328571429 51.8097000000
4014 2 29.9961897471 101.7328571429 52.7592000000
4015 1 31.1032826043 99.8153571429 51.8097000000
4016 2 26.6750165329 99.8153571429 48.6232000000
4017 1 27.7821093900 101.7328571429 49.5727000000
4018 2 29.9961897471 101.7328571429 48.6232000000
4019 1 31.1032826043 99.8153571429 49.5727000000
4020 2 26.6750165329 103.6503571429 52.7592000000
4021 1 27.7821093900 105.5678571429 51.8097000000
4022 2 29.9961897471 105.5678571429 52.7592000000
4023 1 31.1032826043 103.6503571429 51.8097000000
4024 2 26.6750165329 103.6503571429 48.6232000000
4025 1 27.7821093900 105.5678571429 49.5727000000
4026 2 29.9961897471 105.5678571429 48.6232000000
4027 1 31.1032826043 103.6503571429 49.5727000000
4028 2 33.3174683186 99.8153571429 52.7592000000
4029 1 34.4244558186 101.7328571429 51.8097000000
4030 2 36.6386415329 101.7328571429 52.7592000000
4031 1 37.7457343900 99.8153571429 51.8097000000
4032 2 33.3174683186 99.8153571429 48.6232000000
4033 1 34.4244558186 101.7328571429 49.5727000000
4034 2 36.6386415329 101.7328571429 48.6232000000
4035 1 37.7457343900 99.8153571429 49.5727000000
4036 2 33.3174683186 103.6503571429 52.7592000000
4037 1 34.4244558186 105.5678571429 51.8097000000
4038 1 37.7457343900 103.6503571429 51.8097000000
4039 2 33.3174683186 103.6503571429 48.6232000000
4040 1 34.4244558186 105.5678571429 49.5727000000
4041 2 36.6386415329 105.5678571429 48.6232000000
4042 1 37.7457343900 103.6503571429 49.5727000000
4043 2 39.9598462279 99.8153571429 52.7592000000
4044 1 41.0669390850 101.7328571429 51.8097000000
4045 2 43.2810194421 101.7328571429 52.7592000000
4046 1 44.3881122993 99.8153571429 51.8097000000
4047 2 39.9598462279 99.8153571429 48.6232000000
4048 1 41.0669390850 101.7328571429 49.5727000000
4049 2 43.2810194421 101.7328571429 48.6232000000
4050 1 44.3881122993 99.8153571429 49.5727000000
4051 2 39.9598462279 103.6503571429 52.7592000000
4052 1 41.0669390850 105.5678571429 51.8097000000
4053 2 43.2810194421 105.5678571429 52.7592000000
4054 1 44.3881122993 103.6503571429 51.8097000000
4055 2 39.9598462279 103.6503571429 48.6232000000
4056 1 41.0669390850 105.5678571429 49.5727000000
4057 2 43.2810194421 105.5678571429 48.6232000000
4058 1 44.3881122993 103.6503571429 49.5727000000
4059 2 46.6022980136 99.8153571429 52.7592000000
4060 1 47.7092855136 101.7328571429 51.8097000000
4061 1 51.0305640850 99.8153571429 51.8097000000
4062 2 46.6022980136 99.8153571429 48.6232000000
4063 1 47.7092855136 101.7328571429 49.5727000000
4064 2 49.9234712279 101.7328571429 48.6232000000
4065 1 51.0305640850 99.8153571429 49.5727000000
4066 2 46.6022980136 103.6503571429 52.7592000000
4067 1 47.7092855136 105.5678571429 51.8097000000
4068 2 49.9234712279 105.5678571429 52.7592000000
4069 1 51.0305640850 103.6503571429 51.8097000000
4070 2 46.6022980136 103.6503571429 48.6232000000
4071 1 47.7092855136 105.5678571429 49.5727000000
4072 2 49.9234712279 105.5678571429 48.6232000000
4073 1 51.0305640850 103.6503571429 49.5727000000
4074 2 53.2446759229 99.8153571429 52.7592000000
4075 1 54.3517687800 101.7328571429 51.8097000000
4076 2 56.5658491371 101.7328571429 52.7592000000
4077 1 57.6729419943 99.8153571429 51.8097000000
4078 2 53.2446759229 99.8153571429 48.6232000000
4079 1 54.3517687800 101.7328571429 49.5727000000
4080 1 57.6729419943 99.8153571429 49.5727000000
4081 2 53.2446759229 103.6503571429 52.7592000000
4082 1 54.3517687800 105.5678571429 51.8097000000
4083 2 56.5658491371 105.5678571429 52.7592000000
4084 1 57.6729419943 103.6503571429 51.8097000000
4085 2 53.2446759229 103.6503571429 48.6232000000
4086 1 54.3517687800 105.5678571429 49.5727000000
4087 2 56.5658491371 105.5678571429 48.6232000000
4088 1 57.6729419943 103.6503571429 49.5727000000
4089 2 59.8871277086 99.8153571429 52.7592000000
4090 1 60.9941152086 101.7328571429 51.8097000000
4091 2 63.2083009229 101.7328571429 52.7592000000
4092 1 64.3153937800 99.8153571429 51.8097000000
4093 2 59.8871277086 99.8153571429 48.6232000000
4094 1 60.9941152086 101.7328571429 49.5727000000
4095 1 64.3153937800 99.8153571429 49.5727000000
4096 2 59.8871277086 103.6503571429 52.7592000000
4097 1 60.9941152086 105.5678571429 51.8097000000
4098 2 63.2083009229 105.5678571429 52.7592000000
4099 1 64.3153937800 103.6503571429 51.8097000000
4100 2 59.8871277086 103.6503571429 48.6232000000
4101 1 60.9941152086 105.5678571429 49.5727000000
4102 2 63.2083009229 105.5678571429 48.6232000000
4103 1 64.3153937800 103.6503571429 49.5727000000
4104 2 66.5295056179 99.8153571429 52.7592000000
4105 1 67.6365984750 101.7328571429 51.8097000000
4106 1 70.9577716893 99.8153571429 51.8097000000
4107 2 66.5295056179 99.8153571429 48.6232000000
4108 1 67.6365984750 101.7328571429 49.5727000000
4109 2 69.8506788321 101.7328571429 48.6232000000
4110 1 70.9577716893 99.8153571429 49.5727000000
4111 2 66.5295056179 103.6503571429 52.7592000000
4112 1 67.6365984750 105.5678571429 51.8097000000
4113 2 69.8506788321 105.5678571429 52.7592000000
4114 1 70.9577716893 103.6503571429 51.8097000000
4115 2 66.5295056179 103.6503571429 48.6232000000
4116 1 67.6365984750 105.5678571429 49.5727000000
4117 2 69.8506788321 105.5678571429 48.6232000000
4118 1 70.9577716893 103.6503571429 49.5727000000
4119 2 73.1719574036 99.8153571429 52.7592000000
4120 1 74.2789449036 101.7328571429 51.8097000000
4121 1 77.6002234750 99.8153571429 51.8097000000
4122 2 73.1719574036 99.8153571429 48.6232000000
4123 1 74.2789449036 101.7328571429 49.5727000000
4124 2 76.4931306179 101.7328571429 48.6232000000
4125 1 77.6002234750 99.8153571429 49.5727000000
4126 2 73.1719574036 103.6503571429 52.7592000000
4127 1 74.2789449036 105.5678571429 51.8097000000
4128 2 76.4931306179 105.5678571429 52.7592000000
4129 1 77.6002234750 103.6503571429 51.8097000000
4130 2 73.1719574036 103.6503571429 48.6232000000
4131 1 74.2789449036 105.5678571429 49.5727000000
4132 2 76.4931306179 105.5678571429 48.6232000000
4133 1 77.6002234750 103.6503571429 49.5727000000
4134 2 79.8143353129 99.8153571429 52.7592000000
4135 1 80.9214281700 101.7328571429 51.8097000000
4136 2 83.1355085271 101.7328571429 52.7592000000
4137 1 84.2426013843 99.8153571429 51.8097000000
4138 2 79.8143353129 99.8153571429 48.6232000000
4139 1 80.9214281700 101.7328571429 49.5727000000
4140 2 83.1355085271 101.7328571429 48.6232000000
4141 1 84.2426013843 99.8153571429 49.5727000000
4142 2 79.8143353129 103.6503571429 52.7592000000
4143 1 80.9214281700 105.5678571429 51.8097000000
4144 2 83.1355085271 105.5678571429 52.7592000000
4145 1 84.2426013843 103.6503571429 51.8097000000
4146 2 79.8143353129 103.6503571429 48.6232000000
4147 1 80.9214281700 105.5678571429 49.5727000000
4148 2 83.1355085271 105.5678571429 48.6232000000
4149 1 84.2426013843 103.6503571429 49.5727000000
4150 2 86.4567870986 99.8153571429 52.7592000000
4151 1 87.5637745986 101.7328571429 51.8097000000
4152 2 89.7779603129 101.7328571429 52.7592000000
4153 1 90.8850531700 99.8153571429 51.8097000000
4154 2 86.4567870986 99.8153571429 48.6232000000
4155 1 87.5637745986 101.7328571429 49.5727000000
4156 2 89.7779603129 101.7328571429 48.6232000000
4157 1 90.8850531700 99.8153571429 49.5727000000
4158 2 86.4567870986 103.6503571429 52.7592000000
4159 1 87.5637745986 105.5678571429 51.8097000000
4160 2 89.7779603129 105.5678571429 52.7592000000
4161 1 90.8850531700 103.6503571429 51.8097000000
4162 1 87.5637745986 105.5678571429 49.5727000000
4163 2 89.7779603129 105.5678571429 48.6232000000
4164 1 90.8850531700 103.6503571429 49.5727000000
4165 2 93.0991650079 99.8153571429 52.7592000000
4166 1 94.2062578650 101.7328571429 51.8097000000
4167 2 96.4203382221 101.7328571429 52.7592000000
4168 1 97.5274310793 99.8153571429 51.8097000000
4169 2 93.0991650079 99.8153571429 48.6232000000
4170 1 94.2062578650 101.7328571429 49.5727000000
4171 2 96.4203382221 101.7328571429 48.6232000000
4172 1 97.5274310793 99.8153571429 49.5727000000
4173 2 93.0991650079 103.6503571429 52.7592000000
4174 1 94.2062578650 105.5678571429 51.8097000000
4175 2 96.4203382221 105.5678571429 52.7592000000
4176 1 97.5274310793 103.6503571429 51.8097000000
4177 2 93.0991650079 103.6503571429 48.6232000000
4178 1 94.2062578650 105.5678571429 49.5727000000
4179 2 96.4203382221 105.5678571429 48.6232000000
4180 1 97.5274310793 103.6503571429 49.5727000000
4181 2 99.7416167936 99.8153571429 52.7592000000
4182 1 100.8486042936 101.7328571429 51.8097000000
4183 2 103.0627900079 101.7328571429 52.7592000000
4184 1 104.1698828650 99.8153571429 51.8097000000
4185 2 99.7416167936 99.8153571429 48.6232000000
4186 1 100.8486042936 101.7328571429 49.5727000000
4187 2 103.0627900079 101.7328571429 48.6232000000
4188 1 104.1698828650 99.8153571429 49.5727000000
4189 2 99.7416167936 103.6503571429 52.7592000000
4190 1 100.8486042936 105.5678571429 51.8097000000
4191 2 103.0627900079 105.5678571429 52.7592000000
4192 1 104.1698828650 103.6503571429 51.8097000000
4193 2 99.7416167936 103.6503571429 48.6232000000
4194 1 100.8486042936 105.5678571429 49.5727000000
4195 1 104.1698828650 103.6503571429 49.5727000000
4196 2 106.3839947029 99.8153571429 52.7592000000
4197 1 107.4910875600 101.7328571429 51.8097000000
4198 2 109.7051679171 101.7328571429 52.7592000000
4199 1 110.8122607743 99.8153571429 51.8097000000
4200 2 106.3839947029 99.8153571429 48.6232000000
4201 1 107.4910875600 101.7328571429 49.5727000000
4202 2 109.7051679171 101.7328571429 48.6232000000
4203 1 110.8122607743 99.8153571429 49.5727000000
4204 2 106.3839947029 103.6503571429 52.7592000000
4205 1 107.4910875600 105.5678571429 51.8097000000
4206 2 109.7051679171 105.5678571429 52.7592000000
4207 1 110.8122607743 103.6503571429 51.8097000000
4208 2 106.3839947029 103.6503571429 48.6232000000
4209 1 107.4910875600 105.5678571429 49.5727000000
4210 2 109.7051679171 105.5678571429 48.6232000000
4211 1 110.8122607743 103.6503571429 49.5727000000
4212 2 113.0264464886 99.8153571429 52.7592000000
4213 1 114.1334339886 101.7328571429 51.8097000000
4214 2 116.3476197029 101.7328571429 52.7592000000
4215 1 117.4547125600 99.8153571429 51.8097000000
4216 2 113.0264464886 99.8153571429 48.6232000000
4217 1 114.1334339886 101.7328571429 49.5727000000
4218 2 116.3476197029 101.7328571429 48.6232000000
4219 1 117.4547125600 99.8153571429 49.5727000000
4220 2 113.0264464886 103.6503571429 52.7592000000
4221 1 114.1334339886 105.5678571429 51.8097000000
4222 2 116.3476197029 105.5678571429 52.7592000000
4223 1 117.4547125600 103.6503571429 51.8097000000
4224 2 113.0264464886 103.6503571429 48.6232000000
4225 1 114.1334339886 105.5678571429 49.5727000000
4226 2 116.3476197029 105.5678571429 48.6232000000
4227 1 117.4547125600 103.6503571429 49.5727000000
4228 2 119.6688243979 99.8153571429 52.7592000000
4229 1 120.7759172550 101.7328571429 51.8097000000
4230 2 122.9899976121 101.7328571429 52.7592000000
4231 1 124.0970904693 99.8153571429 51.8097000000
4232 2 119.6688243979 99.8153571429 48.6232000000
4233 1 120.7759172550 101.7328571429 49.5727000000
4234 2 122.9899976121 101.7328571429 48.6232000000
4235 1 124.0970904693 99.8153571429 49.5727000000
4236 2 119.6688243979 103.6503571429 52.7592000000
4237 1 120.7759172550 105.5678571429 51.8097000000
4238 2 122.9899976121 105.5678571429 52.7592000000
4239 1 124.0970904693 103.6503571429 51.8097000000
4240 2 119.6688243979 103.6503571429 48.6232000000
4241 1 120.7759172550 105.5678571429 49.5727000000
4242 2 122.9899976121 105.5678571429 48.6232000000
4243 1 124.0970904693 103.6503571429 49.5727000000
4244 2 126.3112761836 99.8153571429 52.7592000000
4245 1 127.4182636836 101.7328571429 51.8097000000
4246 2 129.6324493979 101.7328571429 52.7592000000
4247 1 130.7395422550 99.8153571429 51.8097000000
4248 1 127.4182636836 101.7328571429 49.5727000000
4249 2 129.6324493979 101.7328571429 48.6232000000
4250 1 130.7395422550 99.8153571429 49.5727000000
4251 2 126.3112761836 103.6503571429 52.7592000000
4252 1 127.4182636836 105.5678571429 51.8097000000
4253 2 129.6324493979 105.5678571429 52.7592000000
4254 1 130.7395422550 103.6503571429 51.8097000000
4255 2 126.3112761836 103.6503571429 48.6232000000
4256 1 127.4182636836 105.5678571429 49.5727000000
4257 2 129.6324493979 105.5678571429 48.6232000000
4258 1 130.7395422550 103.6503571429 49.5727000000
4259 2 0.1053571429 107.4853571429 52.7592000000
4260 1 1.2124500000 109.4028571429 51.8097000000
4261 1 4.5336232143 107.4853571429 51.8097000000
4262 2 0.1053571429 107.4853571429 48.6232000000
4263 1 1.2124500000 109.4028571429 49.5727000000
4264 2 3.4265303571 109.4028571429 48.6232000000
4265 1 4.5336232143 107.4853571429 49.5727000000
4266 2 0.1053571429 111.3203571429 52.7592000000
4267 1 1.2124500000 113.2378571429 51.8097000000
4268 2 3.4265303571 113.2378571429 52.7592000000
4269 1 4.5336232143 111.3203571429 51.8097000000
4270 2 0.1053571429 111.3203571429 48.6232000000
4271 1 1.2124500000 113.2378571429 49.5727000000
4272 2 3.4265303571 113.2378571429 48.6232000000
4273 1 4.5336232143 111.3203571429 49.5727000000
4274 2 6.7478089286 107.4853571429 52.7592000000
4275 1 7.8547964286 109.4028571429 51.8097000000
4276 2 10.0689821429 109.4028571429 52.7592000000
4277 1 11.1760750000 107.4853571429 51.8097000000
4278 2 6.7478089286 107.4853571429 48.6232000000
4279 1 7.8547964286 109.4028571429 49.5727000000
4280 2 10.0689821429 109.4028571429 48.6232000000
4281 1 11.1760750000 107.4853571429 49.5727000000
4282 2 6.7478089286 111.3203571429 52.7592000000
4283 1 7.8547964286 113.2378571429 51.8097000000
4284 2 10.0689821429 113.2378571429 52.7592000000
4285 1 11.1760750000 111.3203571429 51.8097000000
4286 2 6.7478089286 111.3203571429 48.6232000000
4287 1 7.8547964286 113.2378571429 49.5727000000
4288 2 10.0689821429 113.2378571429 48.6232000000
4289 1 11.1760750000 111.3203571429 49.5727000000
4290 2 13.3901868379 107.4853571429 52.7592000000
4291 1 14.4972796950 109.4028571429 51.8097000000
4292 2 16.7113600521 109.4028571429 52.7592000000
4293 1 17.8184529093 107.4853571429 51.8097000000
4294 2 13.3901868379 107.4853571429 48.6232000000
4295 1 14.4972796950 109.4028571429 49.5727000000
4296 2 16.7113600521 109.4028571429 48.6232000000
4297 1 17.8184529093 107.4853571429 49.5727000000
4298 2 13.3901868379 111.3203571429 52.7592000000
4299 1 14.4972796950 113.2378571429 51.8097000000
4300 2 16.7113600521 113.2378571429 52.7592000000
4301 1 17.8184529093 111.3203571429 51.8097000000
4302 1 14.4972796950 113.2378571429 49.5727000000
4303 2 16.7113600521 113.2378571429 48.6232000000
4304 1 17.8184529093 111.3203571429 49.5727000000
4305 2 20.0326386236 107.4853571429 52.7592000000
4306 1 21.1396261236 109.4028571429 51.8097000000
4307 2 23.3538118379 109.4028571429 52.7592000000
4308 1 24.4609046950 107.4853571429 51.8097000000
4309 2 20.0326386236 107.4853571429 48.6232000000
4310 1 21.1396261236 109.4028571429 49.5727000000
4311 2 23.3538118379 109.4028571429 48.6232000000
4312 1 24.4609046950 107.4853571429 49.5727000000
4313 2 20.0326386236 111.3203571429 52.7592000000
4314 1 21.1396261236 113.2378571429 51.8097000000
4315 2 23.3538118379 113.2378571429 52.7592000000
4316 1 24.4609046950 111.3203571429 51.8097000000
4317 1 21.1396261236 113.2378571429 49.5727000000
4318 2 23.3538118379 113.2378571429 48.6232000000
4319 1 24.4609046950 111.3203571429 49.5727000000
4320 2 26.6750165329 107.4853571429 52.7592000000
4321 1 27.7821093900 109.4028571429 51.8097000000
4322 2 29.9961897471 109.4028571429 52.7592000000
4323 1 31.1032826043 107.4853571429 51.8097000000
4324 1 27.7821093900 109.4028571429 49.5727000000
4325 2 29.9961897471 109.4028571429 48.6232000000
4326 1 31.1032826043 107.4853571429 49.5727000000
4327 2 26.6750165329 111.3203571429 52.7592000000
4328 1 27.7821093900 113.2378571429 51.8097000000
4329 2 29.9961897471 113.2378571429 52.7592000000
4330 1 31.1032826043 111.3203571429 51.8097000000
4331 2 26.6750165329 111.3203571429 48.6232000000
4332 1 27.7821093900 113.2378571429 49.5727000000
4333 2 29.9961897471 113.2378571429 48.6232000000
4334 1 31.1032826043 111.3203571429 49.5727000000
4335 2 33.3174683186 107.4853571429 52.7592000000
4336 1 34.4244558186 109.4028571429 51.8097000000
4337 2 36.6386415329 109.4028571429 52.7592000000
4338 1 37.7457343900 107.4853571429 51.8097000000
4339 2 33.3174683186 107.4853571429 48.6232000000
4340 1 34.4244558186 109.4028571429 49.5727000000
4341 2 36.6386415329 109.4028571429 48.6232000000
4342 1 37.7457343900 107.4853571429 49.5727000000
4343 1 34.4244558186 113.2378571429 51.8097000000
4344 2 36.6386415329 113.2378571429 52.7592000000
4345 1 37.7457343900 111.3203571429 51.8097000000
4346 2 33.3174683186 111.3203571429 48.6232000000
4347 1 34.4244558186 113.2378571429 49.5727000000
4348 2 36.6386415329 113.2378571429 48.6232000000
4349 1 37.7457343900 111.3203571429 49.5727000000
4350 2 39.9598462279 107.4853571429 52.7592000000
4351 1 41.0669390850 109.4028571429 51.8097000000
4352 2 43.2810194421 109.4028571429 52.7592000000
4353 1 44.3881122993 107.4853571429 51.8097000000
4354 2 39.9598462279 107.4853571429 48.6232000000
4355 1 41.0669390850 109.4028571429 49.5727000000
4356 2 43.2810194421 109.4028571429 48.6232000000
4357 1 44.3881122993 107.4853571429 49.5727000000
4358 1 41.0669390850 113.2378571429 51.8097000000
4359 2 43.2810194421 113.2378571429 52.7592000000
4360 1 44.3881122993 111.3203571429 51.8097000000
4361 2 39.9598462279 111.3203571429 48.6232000000
4362 1 41.0669390850 113.2378571429 49.5727000000
4363 2 43.2810194421 113.2378571429 48.6232000000
4364 1 44.3881122993 111.3203571429 49.5727000000
4365 2 46.6022980136 107.4853571429 52.7592000000
4366 1 47.7092855136 109.4028571429 51.8097000000
4367 2 49.9234712279 109.4028571429 52.7592000000
4368 1 51.0305640850 107.4853571429 51.8097000000
4369 2 46.6022980136 107.4853571429 48.6232000000
4370 1 47.7092855136 109.4028571429 49.5727000000
4371 2 49.9234712279 109.4028571429 48.6232000000
4372 1 51.0305640850 107.4853571429 49.5727000000
4373 2 46.6022980136 111.3203571429 52.7592000000
4374 1 47.7092855136 113.2378571429 51.8097000000
4375 2 49.9234712279 113.2378571429 52.7592000000
4376 1 51.0305640850 111.3203571429 51.8097000000
4377 1 47.7092855136 113.2378571429 49.5727000000
4378 2 49.9234712279 113.2378571429 48.6232000000
4379 1 51.0305640850 111.3203571429 49.5727000000
4380 2 53.2446759229 107.4853571429 52.7592000000
4381 1 54.3517687800 109.4028571429 51.8097000000
4382 2 56.5658491371 109.4028571429 52.7592000000
4383 1 57.6729419943 107.4853571429 51.8097000000
4384 1 54.3517687800 109.4028571429 49.5727000000
4385 2 56.5658491371 109.4028571429 48.6232000000
4386 1 57.6729419943 107.4853571429 49.5727000000
4387 2 53.2446759229 111.3203571429 52.7592000000
4388 1 54.3517687800 113.2378571429 51.8097000000
4389 2 56.5658491371 113.2378571429 52.7592000000
4390 1 57.6729419943 111.3203571429 51.8097000000
4391 2 53.2446759229 111.3203571429 48.6232000000
4392 1 54.3517687800 113.2378571429 49.5727000000
4393 1 57.6729419943 111.3203571429 49.5727000000
4394 1 60.9941152086 109.4028571429 51.8097000000
4395 2 63.2083009229 109.4028571429 52.7592000000
4396 1 64.3153937800 107.4853571429 51.8097000000
4397 2 59.8871277086 107.4853571429 48.6232000000
4398 1 60.9941152086 109.4028571429 49.5727000000
4399 2 63.2083009229 109.4028571429 48.6232000000
4400 1 64.3153937800 107.4853571429 49.5727000000
4401 2 59.8871277086 111.3203571429 52.7592000000
4402 1 60.9941152086 113.2378571429 51.8097000000
4403 1 64.3153937800 111.3203571429 51.8097000000
4404 2 59.8871277086 111.3203571429 48.6232000000
4405 1 60.9941152086 113.2378571429 49.5727000000
4406 2 63.2083009229 113.2378571429 48.6232000000
4407 1 64.3153937800 111.3203571429 49.5727000000
4408 2 66.5295056179 107.4853571429 52.7592000000
4409 1 67.6365984750 109.4028571429 51.8097000000
4410 2 69.8506788321 109.4028571429 52.7592000000
4411 1 70.9577716893 107.4853571429 51.8097000000
4412 1 67.6365984750 109.4028571429 49.5727000000
4413 2 69.8506788321 109.4028571429 48.6232000000
4414 1 70.9577716893 107.4853571429 49.5727000000
4415 2 66.5295056179 111.3203571429 52.7592000000
4416 1 67.6365984750 113.2378571429 51.8097000000
4417 2 69.8506788321 113.2378571429 52.7592000000
4418 1 70.9577716893 111.3203571429 51.8097000000
4419 2 66.5295056179 111.3203571429 48.6232000000
4420 1 67.6365984750 113.2378571429 49.5727000000
4421 2 69.8506788321 113.2378571429 48.6232000000
4422 1 70.9577716893 111.3203571429 49.5727000000
4423 2 73.1719574036 107.4853571429 52.7592000000
4424 1 74.2789449036 109.4028571429 51.8097000000
4425 1 77.6002234750 107.4853571429 51.8097000000
4426 2 73.1719574036 107.4853571429 48.6232000000
4427 1 74.2789449036 109.4028571429 49.5727000000
4428 2 76.4931306179 109.4028571429 48.6232000000
4429 1 77.6002234750 107.4853571429 49.5727000000
4430 2 73.1719574036 111.3203571429 52.7592000000
4431 1 74.2789449036 113.2378571429 51.8097000000
4432 2 76.4931306179 113.2378571429 52.7592000000
4433 1 77.6002234750 111.3203571429 51.8097000000
4434 2 73.1719574036 111.3203571429 48.6232000000
4435 1 74.2789449036 113.2378571429 49.5727000000
4436 2 76.4931306179 113.2378571429 48.6232000000
4437 1 77.6002234750 111.3203571429 49.5727000000
4438 2 79.8143353129 107.4853571429 52.7592000000
4439 1 80.9214281700 109.4028571429 51.8097000000
4440 2 83.1355085271 109.4028571429 52.7592000000
4441 1 84.2426013843 107.4853571429 51.8097000000
4442 2 79.8143353129 107.4853571429 48.6232000000
4443 1 80.9214281700 109.4028571429 49.5727000000
4444 1 84.2426013843 107.4853571429 49.5727000000
4445 2 79.8143353129 111.3203571429 52.7592000000
4446 1 80.9214281700 113.2378571429 51.8097000000
4447 2 83.1355085271 113.2378571429 52.7592000000
4448 1 84.2426013843 111.3203571429 51.8097000000
4449 2 79.8143353129 111.3203571429 48.6232000000
4450 1 80.9214281700 113.2378571429 49.5727000000
4451 2 83.1355085271 113.2378571429 48.6232000000
4452 1 84.2426013843 111.3203571429 49.5727000000
4453 2 86.4567870986 107.4853571429 52.7592000000
4454 1 87.5637745986 109.4028571429 51.8097000000
4455 2 89.7779603129 109.4028571429 52.7592000000
4456 1 90.8850531700 107.4853571429 51.8097000000
4457 2 86.4567870986 107.4853571429 48.6232000000
4458 1 87.5637745986 109.4028571429 49.5727000000
4459 2 89.7779603129 109.4028571429 48.6232000000
4460 1 90.8850531700 107.4853571429 49.5727000000
4461 2 86.4567870986 111.3203571429 52.7592000000
4462 1 87.5637745986 113.2378571429 51.8097000000
4463 2 89.7779603129 113.2378571429 52.7592000000
4464 1 90.8850531700 111.3203571429 51.8097000000
4465 2 86.4567870986 111.3203571429 48.6232000000
4466 1 87.5637745986 113.2378571429 49.5727000000
4467 2 89.7779603129 113.2378571429 48.6232000000
4468 1 90.8850531700 111.3203571429 49.5727000000
4469 1 94.2062578650 109.4028571429 51.8097000000
4470 2 96.4203382221 109.4028571429 52.7592000000
4471 1 97.5274310793 107.4853571429 51.8097000000
4472 2 93.0991650079 107.4853571429 48.6232000000
4473 1 94.2062578650 109.4028571429 49.5727000000
4474 2 96.4203382221 109.4028571429 48.6232000000
4475 1 97.5274310793 107.4853571429 49.5727000000
4476 2 93.0991650079 111.3203571429 52.7592000000
4477 1 94.2062578650 113.2378571429 51.8097000000
4478 2 96.4203382221 113.2378571429 52.7592000000
4479 1 97.5274310793 111.3203571429 51.8097000000
4480 2 93.0991650079 111.3203571429 48.6232000000
4481 1 94.2062578650 113.2378571429 49.5727000000
4482 2 96.4203382221 113.2378571429 48.6232000000
4483 1 97.5274310793 111.3203571429 49.5727000000
4484 2 99.7416167936 107.4853571429 52.7592000000
4485 1 100.8486042936 109.4028571429 51.8097000000
4486 2 103.0627900079 109.4028571429 52.7592000000
4487 1 104.1698828650 107.4853571429 51.8097000000
4488 2 99.7416167936 107.4853571429 48.6232000000
4489 1 100.8486042936 109.4028571429 49.5727000000
4490 2 103.0627900079 109.4028571429 48.6232000000
4491 1 104.1698828650 107.4853571429 49.5727000000
4492 2 99.7416167936 111.3203571429 52.7592000000
4493 1 100.8486042936 113.2378571429 51.8097000000
4494 2 103.0627900079 113.2378571429 52.7592000000
4495 1 104.1698828650 111.3203571429 51.8097000000
4496 2 99.7416167936 111.3203571429 48.6232000000
4497 1 100.8486042936 113.2378571429 49.5727000000
4498 2 103.0627900079 113.2378571429 48.6232000000
4499 1 104.1698828650 111.3203571429 49.5727000000
4500 2 106.3839947029 107.4853571429 52.7592000000
4501 1 107.4910875600 109.4028571429 51.8097000000
4502 2 109.7051679171 109.4028571429 52.7592000000
4503 1 110.8122607743 107.4853571429 51.8097000000
4504 2 106.3839947029 107.4853571429 48.6232000000
4505 1 107.4910875600 109.4028571429 49.5727000000
4506 2 109.7051679171 109.4028571429 48.6232000000
4507 1 110.8122607743 107.4853571429 49.5727000000
4508 1 107.4910875600 113.2378571429 51.8097000000
4509 2 109.7051679171 113.2378571429 52.7592000000
4510 1 110.8122607743 111.3203571429 51.8097000000
4511 2 106.3839947029 111.3203571429 48.6232000000
4512 1 107.4910875600 113.2378571429 49.5727000000
4513 2 109.7051679171 113.2378571429 48.6232000000
4514 1 110.8122607743 111.3203571429 49.5727000000
4515 2 113.0264464886 107.4853571429 52.7592000000
4516 1 114.1334339886 109.4028571429 51.8097000000
4517 1 117.4547125600 107.4853571429 51.8097000000
4518 2 113.0264464886 107.4853571429 48.6232000000
4519 1 114.1334339886 109.4028571429 49.5727000000
4520 2 116.3476197029 109.4028571429 48.6232000000
4521 1 117.4547125600 107.4853571429 49.5727000000
4522 2 113.0264464886 111.3203571429 52.7592000000
4523 1 114.1334339886 113.2378571429 51.8097000000
4524 2 116.3476197029 113.2378571429 52.7592000000
4525 1 117.4547125600 111.3203571429 51.8097000000
4526 2 113.0264464886 111.3203571429 48.6232000000
4527 1 114.1334339886 113.2378571429 49.5727000000
4528 2 116.3476197029 113.2378571429 48.6232000000
4529 1 117.4547125600 111.3203571429 49.5727000000
4530 2 119.6688243979 107.4853571429 52.7592000000
4531 1 120.7759172550 109.4028571429 51.8097000000
4532 2 122.9899976121 109.4028571429 52.7592000000
4533 1 124.0970904693 107.4853571429 51.8097000000
4534 2 119.6688243979 107.4853571429 48.6232000000
4535 1 120.7759172550 109.4028571429 49.5727000000
4536 2 122.9899976121 109.4028571429 48.6232000000
4537 1 124.0970904693 107.4853571429 49.5727000000
4538 2 119.6688243979 111.3203571429 52.7592000000
4539 1 120.7759172550 113.2378571429 51.8097000000
4540 2 122.9899976121 113.2378571429 52.7592000000
4541 1 124.0970904693 111.3203571429 51.8097000000
4542 2 119.6688243979 111.3203571429 48.6232000000
4543 1 120.7759172550 113.2378571429 49.5727000000
4544 1 124.0970904693 111.3203571429 49.5727000000
4545 1 127.4182636836 109.4028571429 51.8097000000
4546 2 129.6324493979 109.4028571429 52.7592000000
4547 1 130.7395422550 107.4853571429 51.8097000000
4548 2 126.3112761836 107.4853571429 48.6232000000
4549 1 127.4182636836 109.4028571429 49.5727000000
4550 2 129.6324493979 109.4028571429 48.6232000000
4551 1 130.7395422550 107.4853571429 49.5727000000
4552 2 126.3112761836 111.3203571429 52.7592000000
4553 1 127.4182636836 113.2378571429 51.8097000000
4554 1 130.7395422550 111.3203571429 51.8097000000
4555 2 126.3112761836 111.3203571429 48.6232000000
4556 1 127.4182636836 113.2378571429 49.5727000000
4557 2 129.6324493979 113.2378571429 48.6232000000
4558 1 130.7395422550 111.3203571429 49.5727000000
4559 2 0.1053571429 115.1553571429 52.7592000000
4560 1 1.2124500000 117.0728571429 51.8097000000
4561 2 3.4265303571 117.0728571429 52.7592000000
4562 1 4.5336232143 115.1553571429 51.8097000000
4563 2 0.1053571429 115.1553571429 48.6232000000
4564 1 1.2124500000 117.0728571429 49.5727000000
4565 2 3.4265303571 117.0728571429 48.6232000000
4566 1 4.5336232143 115.1553571429 49.5727000000
4567 1 1.2124500000 120.9078571429 51.8097000000
4568 2 3.4265303571 120.9078571429 52.7592000000
4569 1 4.5336232143 118.9903571429 51.8097000000
4570 2 0.1053571429 118.9903571429 48.6232000000
4571 1 1.2124500000 120.9078571429 49.5727000000
4572 2 3.4265303571 120.9078571429 48.6232000000
4573 1 4.5336232143 118.9903571429 49.5727000000
4574 2 6.7478089286 115.1553571429 52.7592000000
4575 1 7.8547964286 117.0728571429 51.8097000000
4576 2 10.0689821429 117.0728571429 52.7592000000
4577 1 11.1760750000 115.1553571429 51.8097000000
4578 2 6.7478089286 115.1553571429 48.6232000000
4579 1 7.8547964286 117.0728571429 49.5727000000
4580 2 10.0689821429 117.0728571429 48.6232000000
4581 1 11.1760750000 115.1553571429 49.5727000000
4582 2 6.7478089286 118.9903571429 52.7592000000
4583 1 7.8547964286 120.9078571429 51.8097000000
4584 2 10.0689821429 120.9078571429 52.7592000000
4585 1 11.1760750000 118.9903571429 51.8097000000
4586 2 6.7478089286 118.9903571429 48.6232000000
4587 1 7.8547964286 120.9078571429 49.5727000000
4588 2 10.0689821429 120.9078571429 48.6232000000
4589 1 11.1760750000 118.9903571429 49.5727000000
4590 2 13.3901868379 115.1553571429 52.7592000000
4591 1 14.4972796950 117.0728571429 51.8097000000
4592 2 16.7113600521 117.0728571429 52.7592000000
4593 1 17.8184529093 115.1553571429 51.8097000000
4594 2 13.3901868379 115.1553571429 48.6232000000
4595 1 14.4972796950 117.0728571429 49.5727000000
4596 2 16.7113600521 117.0728571429 48.6232000000
4597 1 17.8184529093 115.1553571429 49.5727000000
4598 1 14.4972796950 120.9078571429 51.8097000000
4599 2 16.7113600521 120.9078571429 52.7592000000
4600 1 17.8184529093 118.9903571429 51.8097000000
4601 2 13.3901868379 118.9903571429 48.6232000000
4602 1 14.4972796950 120.9078571429 49.5727000000
4603 2 16.7113600521 120.9078571429 48.6232000000
4604 1 17.8184529093 118.9903571429 49.5727000000
4605 2 20.0326386236 115.1553571429 52.7592000000
4606 1 21.1396261236 117.0728571429 51.8097000000
4607 2 23.3538118379 117.0728571429 52.7592000000
4608 1 24.4609046950 115.1553571429 51.8097000000
4609 2 20.0326386236 115.1553571429 48.6232000000
4610 1 21.1396261236 117.0728571429 49.5727000000
4611 2 23.3538118379 117.0728571429 48.6232000000
4612 1 24.4609046950 115.1553571429 49.5727000000
4613 2 20.0326386236 118.9903571429 52.7592000000
4614 1 21.1396261236 120.9078571429 51.8097000000
4615 1 24.4609046950 118.9903571429 51.8097000000
4616 2 20.0326386236 118.9903571429 48.6232000000
4617 1 21.1396261236 120.9078571429 49.5727000000
4618 2 23.3538118379 120.9078571429 48.6232000000
4619 1 24.4609046950 118.9903571429 49.5727000000
4620 2 26.6750165329 115.1553571429 52.7592000000
4621 1 27.7821093900 117.0728571429 51.8097000000
4622 2 29.9961897471 117.0728571429 52.7592000000
4623 1 31.1032826043 115.1553571429 51.8097000000
4624 2 26.6750165329 115.1553571429 48.6232000000
4625 1 27.7821093900 117.0728571429 49.5727000000
4626 1 31.1032826043 115.1553571429 49.5727000000
4627 2 26.6750165329 118.9903571429 52.7592000000
4628 1 27.7821093900 120.9078571429 51.8097000000
4629 2 29.9961897471 120.9078571429 52.7592000000
4630 1 31.1032826043 118.9903571429 51.8097000000
4631 2 26.6750165329 118.9903571429 48.6232000000
4632 1 27.7821093900 120.9078571429 49.5727000000
4633 2 29.9961897471 120.9078571429 48.6232000000
4634 1 31.1032826043 118.9903571429 49.5727000000
4635 2 33.3174683186 115.1553571429 52.7592000000
4636 1 34.4244558186 117.0728571429 51.8097000000
4637 2 36.6386415329 117.0728571429 52.7592000000
4638 1 37.7457343900 115.1553571429 51.8097000000
4639 2 33.3174683186 115.1553571429 48.6232000000
4640 1 34.4244558186 117.0728571429 49.5727000000
4641 1 37.7457343900 115.1553571429 49.5727000000
4642 2 33.3174683186 118.9903571429 52.7592000000
4643 1 34.4244558186 120.9078571429 51.8097000000
4644 2 36.6386415329 120.9078571429 52.7592000000
4645 1 37.7457343900 118.9903571429 51.8097000000
4646 2 33.3174683186 118.9903571429 48.6232000000
4647 1 34.4244558186 120.9078571429 49.5727000000
4648 2 36.6386415329 120.9078571429 48.6232000000
4649 1 37.7457343900 118.9903571429 49.5727000000
4650 2 39.9598462279 115.1553571429 52.7592000000
4651 1 41.0669390850 117.0728571429 51.8097000000
4652 2 43.2810194421 117.0728571429 52.7592000000
4653 1 44.3881122993 115.1553571429 51.8097000000
4654 2 39.9598462279 115.1553571429 48.6232000000
4655 1 41.0669390850 117.0728571429 49.5727000000
4656 2 43.2810194421 117.0728571429 48.6232000000
4657 1 44.3881122993 115.1553571429 49.5727000000
4658 2 39.9598462279 118.9903571429 52.7592000000
4659 1 41.0669390850 120.9078571429 51.8097000000
4660 2 43.2810194421 120.9078571429 52.7592000000
4661 1 44.3881122993 118.9903571429 51.8097000000
4662 2 39.9598462279 118.9903571429 48.6232000000
4663 1 41.0669390850 120.9078571429 49.5727000000
4664 2 43.2810194421 120.9078571429 48.6232000000
4665 1 44.3881122993 118.9903571429 49.5727000000
4666 2 46.6022980136 115.1553571429 52.7592000000
4667 1 47.7092855136 117.0728571429 51.8097000000
4668 2 49.9234712279 117.0728571429 52.7592000000
4669 1 51.0305640850 115.1553571429 51.8097000000
4670 2 46.6022980136 115.1553571429 48.6232000000
4671 1 47.7092855136 117.0728571429 49.5727000000
4672 2 49.9234712279 117.0728571429 48.6232000000
4673 1 51.0305640850 115.1553571429 49.5727000000
4674 1 47.7092855136 120.9078571429 51.8097000000
4675 2 49.9234712279 120.9078571429 52.7592000000
4676 1 51.0305640850 118.9903571429 51.8097000000
4677 2 46.6022980136 118.9903571429 48.6232000000
4678 1 47.7092855136 120.9078571429 49.5727000000
4679 2 49.9234712279 120.9078571429 48.6232000000
4680 1 51.0305640850 118.9903571429 49.5727000000
4681 2 53.2446759229 115.1553571429 52.7592000000
4682 1 54.3517687800 117.0728571429 51.8097000000
4683 2 56.5658491371 117.0728571429 52.7592000000
4684 1 57.6729419943 115.1553571429 51.8097000000
4685 2 53.2446759229 115.1553571429 48.6232000000
4686 1 54.3517687800 117.0728571429 49.5727000000
4687 2 56.5658491371 117.0728571429 48.6232000000
4688 1 57.6729419943 115.1553571429 49.5727000000
4689 2 53.2446759229 118.9903571429 52.7592000000
4690 1 54.3517687800 120.9078571429 51.8097000000
4691 2 56.5658491371 120.9078571429 52.7592000000
4692 1 57.6729419943 118.9903571429 51.8097000000
4693 2 53.2446759229 118.9903571429 48.6232000000
4694 1 54.3517687800 120.9078571429 49.5727000000
4695 1 57.6729419943 118.9903571429 49.5727000000
4696 2 59.8871277086 115.1553571429 52.7592000000
4697 1 60.9941152086 117.0728571429 51.8097000000
4698 2 63.2083009229 117.0728571429 52.7592000000
4699 1 64.3153937800 115.1553571429 51.8097000000
4700 2 59.8871277086 115.1553571429 48.6232000000
4701 1 60.9941152086 117.0728571429 49.5727000000
4702 2 63.2083009229 117.0728571429 48.6232000000
4703 1 64.3153937800 115.1553571429 49.5727000000
4704 2 59.8871277086 118.9903571429 52.7592000000
4705 1 60.9941152086 120.9078571429 51.8097000000
4706 1 64.3153937800 118.9903571429 51.8097000000
4707 2 59.8871277086 118.9903571429 48.6232000000
4708 1 60.9941152086 120.9078571429 49.5727000000
4709 2 63.2083009229 120.9078571429 48.6232000000
4710 1 64.3153937800 118.9903571429 49.5727000000
4711 2 66.5295056179 115.1553571429 52.7592000000
4712 1 67.6365984750 117.0728571429 51.8097000000
4713 2 69.8506788321 117.0728571429 52.7592000000
4714 1 70.9577716893 115.1553571429 51.8097000000
4715 2 66.5295056179 115.1553571429 48.6232000000
4716 1 67.6365984750 117.0728571429 49.5727000000
4717 2 69.8506788321 117.0728571429 48.6232000000
4718 1 70.9577716893 115.1553571429 49.5727000000
4719 2 66.5295056179 118.9903571429 52.7592000000
4720 1 67.6365984750 120.9078571429 51.8097000000
4721 2 69.8506788321 120.9078571429 52.7592000000
4722 1 70.9577716893 118.9903571429 51.8097000000
4723 2 66.5295056179 118.9903571429 48.6232000000
4724 1 67.6365984750 120.9078571429 49.5727000000
4725 2 69.8506788321 120.9078571429 48.6232000000
4726 1 70.9577716893 118.9903571429 49.5727000000
4727 2 73.1719574036 115.1553571429 52.7592000000
4728 1 74.2789449036 117.0728571429 51.8097000000
4729 2 76.4931306179 117.0728571429 52.7592000000
4730 1 77.6002234750 115.1553571429 51.8097000000
4731 1 74.2789449036 117.0728571429 49.5727000000
4732 2 76.4931306179 117.0728571429 48.6232000000
4733 1 77.6002234750 115.1553571429 49.5727000000
4734 2 73.1719574036 118.9903571429 52.7592000000
4735 1 74.2789449036 120.9078571429 51.8097000000
4736 2 76.4931306179 120.9078571429 52.7592000000
4737 1 77.6002234750 118.9903571429 51.8097000000
4738 2 73.1719574036 118.9903571429 48.6232000000
4739 1 74.2789449036 120.9078571429 49.5727000000
4740 2 76.4931306179 120.9078571429 48.6232000000
4741 1 77.6002234750 118.9903571429 49.5727000000
4742 2 79.8143353129 115.1553571429 52.7592000000
4743 1 80.9214281700 117.0728571429 51.8097000000
4744 2 83.1355085271 117.0728571429 52.7592000000
4745 1 84.2426013843 115.1553571429 51.8097000000
4746 2 79.8143353129 115.1553571429 48.6232000000
4747 1 80.9214281700 117.0728571429 49.5727000000
4748 2 83.1355085271 117.0728571429 48.6232000000
4749 1 84.2426013843 115.1553571429 49.5727000000
4750 2 79.8143353129 118.9903571429 52.7592000000
4751 1 80.9214281700 120.9078571429 51.8097000000
4752 2 83.1355085271 120.9078571429 52.7592000000
4753 1 84.2426013843 118.9903571429 51.8097000000
4754 1 80.9214281700 120.9078571429 49.5727000000
4755 2 83.1355085271 120.9078571429 48.6232000000
4756 1 84.2426013843 118.9903571429 49.5727000000
4757 1 87.5637745986 117.0728571429 51.8097000000
4758 2 89.7779603129 117.0728571429 52.7592000000
4759 1 90.8850531700 115.1553571429 51.8097000000
4760 2 86.4567870986 115.1553571429 48.6232000000
4761 1 87.5637745986 117.0728571429 49.5727000000
4762 2 89.7779603129 117.0728571429 48.6232000000
4763 1 90.8850531700 115.1553571429 49.5727000000
4764 2 86.4567870986 118.9903571429 52.7592000000
4765 1 87.5637745986 120.9078571429 51.8097000000
4766 2 89.7779603129 120.9078571429 52.7592000000
4767 1 90.8850531700 118.9903571429 51.8097000000
4768 2 86.4567870986 118.9903571429 48.6232000000
4769 1 87.5637745986 120.9078571429 49.5727000000
4770 2 89.7779603129 120.9078571429 48.6232000000
4771 1 90.8850531700 118.9903571429 49.5727000000
4772 2 93.0991650079 115.1553571429 52.7592000000
4773 1 94.2062578650 117.0728571429 51.8097000000
4774 2 96.4203382221 117.0728571429 52.7592000000
4775 1 97.5274310793 115.1553571429 51.8097000000
4776 1 94.2062578650 117.0728571429 49.5727000000
4777 2 96.4203382221 117.0728571429 48.6232000000
4778 1 97.5274310793 115.1553571429 49.5727000000
4779 2 93.0991650079 118.9903571429 52.7592000000
4780 1 94.2062578650 120.9078571429 51.8097000000
4781 2 96.4203382221 120.9078571429 52.7592000000
4782 1 97.5274310793 118.9903571429 51.8097000000
4783 2 93.0991650079 118.9903571429 48.6232000000
4784 1 94.2062578650 120.9078571429 49.5727000000
4785 2 96.4203382221 120.9078571429 48.6232000000
4786 1 97.5274310793 118.9903571429 49.5727000000
4787 2 99.7416167936 115.1553571429 52.7592000000
4788 1 100.8486042936 117.0728571429 51.8097000000
4789 2 103.0627900079 117.0728571429 52.7592000000
4790 1 104.1698828650 115.1553571429 51.8097000000
4791 2 99.7416167936 115.1553571429 48.6232000000
4792 1 100.8486042936 117.0728571429 49.5727000000
4793 2 103.0627900079 117.0728571429 48.6232000000
4794 1 104.1698828650 115.1553571429 49.5727000000
4795 2 99.7416167936 118.9903571429 52.7592000000
4796 1 100.8486042936 120.9078571429 51.8097000000
4797 2 103.0627900079 120.9078571429 52.7592000000
4798 1 104.1698828650 118.9903571429 51.8097000000
4799 1 100.8486042936 120.9078571429 49.5727000000
4800 2 103.0627900079 120.9078571429 48.6232000000
4801 1 104.1698828650 118.9903571429 49.5727000000
4802 2 106.3839947029 115.1553571429 52.7592000000
4803 1 107.4910875600 117.0728571429 51.8097000000
4804 2 109.7051679171 117.0728571429 52.7592000000
4805 1 110.8122607743 115.1553571429 51.8097000000
4806 2 106.3839947029 115.1553571429 48.6232000000
4807 1 107.4910875600 117.0728571429 49.5727000000
4808 2 109.7051679171 117.0728571429 48.6232000000
4809 1 110.8122607743 115.1553571429 49.5727000000
4810 2 106.3839947029 118.9903571429 52.7592000000
4811 1 107.4910875600 120.9078571429 51.8097000000
4812 2 109.7051679171 120.9078571429 52.7592000000
4813 1 110.8122607743 118.9903571429 51.8097000000
4814 2 106.3839947029 118.9903571429 48.6232000000
4815 1 107.4910875600 120.9078571429 49.5727000000
4816 2 109.7051679171 120.9078571429 48.6232000000
4817 1 110.8122607743 118.9903571429 49.5727000000
4818 1 114.1334339886 117.0728571429 51.8097000000
4819 2 116.3476197029 117.0728571429 52.7592000000
4820 1 117.4547125600 115.1553571429 51.8097000000
4821 2 113.0264464886 115.1553571429 48.6232000000
4822 1 114.1334339886 117.0728571429 49.5727000000
4823 2 116.3476197029 117.0728571429 48.6232000000
4824 1 117.4547125600 115.1553571429 49.5727000000
4825 2 113.0264464886 118.9903571429 52.7592000000
4826 1 114.1334339886 120.9078571429 51.8097000000
4827 2 116.3476197029 120.9078571429 52.7592000000
4828 1 117.4547125600 118.9903571429 51.8097000000
4829 2 113.0264464886 118.9903571429 48.6232000000
4830 1 114.1334339886 120.9078571429 49.5727000000
4831 2 116.3476197029 120.9078571429 48.6232000000
4832 1 117.4547125600 118.9903571429 49.5727000000
4833 2 119.6688243979 115.1553571429 52.7592000000
4834 1 120.7759172550 117.0728571429 51.8097000000
4835 2 122.9899976121 117.0728571429 52.7592000000
4836 1 124.0970904693 115.1553571429 51.8097000000
4837 2 119.6688243979 115.1553571429 48.6232000000
4838 1 120.7759172550 117.0728571429 49.5727000000
4839 2 122.9899976121 117.0728571429 48.6232000000
4840 1 124.0970904693 115.1553571429 49.5727000000
4841 2 119.6688243979 118.9903571429 52.7592000000
4842 1 120.7759172550 120.9078571429 51.8097000000
4843 2 122.9899976121 120.9078571429 52.7592000000
4844 1 124.0970904693 118.9903571429 51.8097000000
4845 2 119.6688243979 118.9903571429 48.6232000000
4846 1 120.7759172550 120.9078571429 49.5727000000
4847 2 122.9899976121 120.9078571429 48.6232000000
4848 1 124.0970904693 118.9903571429 49.5727000000
4849 2 126.3112761836 115.1553571429 52.7592000000
4850 1 127.4182636836 117.0728571429 51.8097000000
4851 2 129.6324493979 117.0728571429 52.7592000000
4852 1 130.7395422550 115.1553571429 51.8097000000
4853 2 126.3112761836 115.1553571429 48.6232000000
4854 1 127.4182636836 117.0728571429 49.5727000000
4855 2 129.6324493979 117.0728571429 48.6232000000
4856 1 130.7395422550 115.1553571429 49.5727000000
4857 2 126.3112761836 118.9903571429 52.7592000000
4858 1 127.4182636836 120.9078571429 51.8097000000
4859 2 129.6324493979 120.9078571429 52.7592000000
4860 1 130.7395422550 118.9903571429 51.8097000000
4861 2 126.3112761836 118.9903571429 48.6232000000
4862 1 127.4182636836 120.9078571429 49.5727000000
4863 2 129.6324493979 120.9078571429 48.6232000000
4864 1 130.7395422550 118.9903571429 49.5727000000
4865 2 0.1053571429 122.8253571429 52.7592000000
4866 1 1.2124500000 124.7428571429 51.8097000000
4867 2 3.4265303571 124.7428571429 52.7592000000
4868 1 4.5336232143 122.8253571429 51.8097000000
4869 2 0.1053571429 122.8253571429 48.6232000000
4870 1 1.2124500000 124.7428571429 49.5727000000
4871 2 3.4265303571 124.7428571429 48.6232000000
4872 1 4.5336232143 122.8253571429 49.5727000000
4873 2 0.1053571429 126.6603571429 52.7592000000
4874 1 1.2124500000 128.5778571429 51.8097000000
4875 2 3.4265303571 128.5778571429 52.7592000000
4876 1 4.5336232143 126.6603571429 51.8097000000
4877 2 0.1053571429 126.6603571429 48.6232000000
4878 1 1.2124500000 128.5778571429 49.5727000000
4879 2 3.4265303571 128.5778571429 48.6232000000
4880 1 4.5336232143 126.6603571429 49.5727000000
4881 2 6.7478089286 122.8253571429 52.7592000000
4882 1 7.8547964286 124.7428571429 51.8097000000
4883 2 10.0689821429 124.7428571429 52.7592000000
4884 1 11.1760750000 122.8253571429 51.8097000000
4885 1 7.8547964286 124.7428571429 49.5727000000
4886 2 10.0689821429 124.7428571429 48.6232000000
4887 1 11.1760750000 122.8253571429 49.5727000000
4888 2 6.7478089286 126.6603571429 52.7592000000
4889 1 7.8547964286 128.5778571429 51.8097000000
4890 2 10.0689821429 128.5778571429 52.7592000000
4891 1 11.1760750000 126.6603571429 51.8097000000
4892 2 6.7478089286 126.6603571429 48.6232000000
4893 1 7.8547964286 128.5778571429 49.5727000000
4894 2 10.0689821429 128.5778571429 48.6232000000
4895 1 11.1760750000 126.6603571429 49.5727000000
4896 2 13.3901868379 122.8253571429 52.7592000000
4897 1 14.4972796950 124.7428571429 51.8097000000
4898 2 16.7113600521 124.7428571429 52.7592000000
4899 1 17.8184529093 122.8253571429 51.8097000000
4900 2 13.3901868379 122.8253571429 48.6232000000
4901 1 14.4972796950 124.7428571429 49.5727000000
4902 2 16.7113600521 124.7428571429 48.6232000000
4903 1 17.8184529093 122.8253571429 49.5727000000
4904 1 14.4972796950 128.5778571429 51.8097000000
4905 2 16.7113600521 128.5778571429 52.7592000000
4906 1 17.8184529093 126.6603571429 51.8097000000
4907 2 13.3901868379 126.6603571429 48.6232000000
4908 1 14.4972796950 128.5778571429 49.5727000000
4909 2 16.7113600521 128.5778571429 48.6232000000
4910 1 17.8184529093 126.6603571429 49.5727000000
4911 2 20.0326386236 122.8253571429 52.7592000000
4912 1 21.1396261236 124.7428571429 51.8097000000
4913 2 23.3538118379 124.7428571429 52.7592000000
4914 1 24.4609046950 122.8253571429 51.8097000000
4915 2 20.0326386236 122.8253571429 48.6232000000
4916 1 21.1396261236 124.7428571429 49.5727000000
4917 2 23.3538118379 124.7428571429 48.6232000000
4918 1 24.4609046950 122.8253571429 49.5727000000
4919 1 21.1396261236 128.5778571429 51.8097000000
4920 2 23.3538118379 128.5778571429 52.7592000000
4921 1 24.4609046950 126.6603571429 51.8097000000
4922 2 20.0326386236 126.6603571429 48.6232000000
4923 1 21.1396261236 128.5778571429 49.5727000000
4924 2 23.3538118379 128.5778571429 48.6232000000
4925 1 24.4609046950 126.6603571429 49.5727000000
4926 2 26.6750165329 122.8253571429 52.7592000000
4927 1 27.7821093900 124.7428571429 51.8097000000
4928 1 31.1032826043 122.8253571429 51.8097000000
4929 2 26.6750165329 122.8253571429 48.6232000000
4930 1 27.7821093900 124.7428571429 49.5727000000
4931 2 29.9961897471 124.7428571429 48.6232000000
4932 1 31.1032826043 122.8253571429 49.5727000000
4933 2 26.6750165329 126.6603571429 52.7592000000
4934 1 27.7821093900 128.5778571429 51.8097000000
4935 2 29.9961897471 128.5778571429 52.7592000000
4936 1 31.1032826043 126.6603571429 51.8097000000
4937 2 26.6750165329 126.6603571429 48.6232000000
4938 1 27.7821093900 128.5778571429 49.5727000000
4939 2 29.9961897471 128.5778571429 48.6232000000
4940 1 31.1032826043 126.6603571429 49.5727000000
4941 2 33.3174683186 122.8253571429 52.7592000000
4942 1 34.4244558186 124.7428571429 51.8097000000
4943 1 37.7457343900 122.8253571429 51.8097000000
4944 2 33.3174683186 122.8253571429 48.6232000000
4945 1 34.4244558186 124.7428571429 49.5727000000
4946 2 36.6386415329 124.7428571429 48.6232000000
4947 1 37.7457343900 122.8253571429 49.5727000000
4948 2 33.3174683186 126.6603571429 52.7592000000
4949 1 34.4244558186 128.5778571429 51.8097000000
4950 2 36.6386415329 128.5778571429 52.7592000000
4951 1 37.7457343900 126.6603571429 51.8097000000
4952 2 33.3174683186 126.6603571429 48.6232000000
4953 1 34.4244558186 128.5778571429 49.5727000000
4954 2 36.6386415329 128.5778571429 48.6232000000
4955 1 37.7457343900 126.6603571429 49.5727000000
4956 2 39.9598462279 122.8253571429 52.7592000000
4957 1 41.0669390850 124.7428571429 51.8097000000
4958 2 43.2810194421 124.7428571429 52.7592000000
4959 1 44.3881122993 122.8253571429 51.8097000000
4960 2 39.9598462279 122.8253571429 48.6232000000
4961 1 41.0669390850 124.7428571429 49.5727000000
4962 2 43.2810194421 124.7428571429 48.6232000000
4963 1 44.3881122993 122.8253571429 49.5727000000
4964 2 39.9598462279 126.6603571429 52.7592000000
4965 1 41.0669390850 128.5778571429 51.8097000000
4966 2 43.2810194421 128.5778571429 52.7592000000
4967 1 44.3881122993 126.6603571429 51.8097000000
4968 2 39.9598462279 126.6603571429 48.6232000000
4969 1 41.0669390850 128.5778571429 49.5727000000
4970 2 43.2810194421 128.5778571429 48.6232000000
4971 1 44.3881122993 126.6603571429 49.5727000000
4972 2 46.6022980136 122.8253571429 52.7592000000
4973 1 47.7092855136 124.7428571429 51.8097000000
4974 2 49.9234712279 124.7428571429 52.7592000000
4975 1 51.0305640850 122.8253571429 51.8097000000
4976 2 46.6022980136 122.8253571429 48.6232000000
4977 1 47.7092855136 124.7428571429 49.5727000000
4978 2 49.9234712279 124.7428571429 48.6232000000
4979 1 51.0305640850 122.8253571429 49.5727000000
4980 2 46.6022980136 126.6603571429 52.7592000000
4981 1 47.7092855136 128.5778571429 51.8097000000
4982 2 49.9234712279 128.5778571429 52.7592000000
4983 1 51.0305640850 126.6603571429 51.8097000000
4984 2 46.6022980136 126.6603571429 48.6232000000
4985 1 47.7092855136 128.5778571429 49.5727000000
4986 2 49.9234712279 128.5778571429 48.6232000000
4987 1 51.0305640850 126.6603571429 49.5727000000
4988 2 53.2446759229 122.8253571429 52.7592000000
4989 1 54.3517687800 124.7428571429 51.8097000000
4990 2 56.5658491371 124.7428571429 52.7592000000
4991 1 57.6729419943 122.8253571429 51.8097000000
4992 2 53.2446759229 122.8253571429 48.6232000000
4993 1 54.3517687800 124.7428571429 49.5727000000
4994 2 56.5658491371 124.7428571429 48.6232000000
4995 1 57.6729419943 122.8253571429 49.5727000000
4996 1 54.3517687800 128.5778571429 51.8097000000
4997 2 56.5658491371 128.5778571429 52.7592000000
4998 1 57.6729419943 126.6603571429 51.8097000000
4999 2 53.2446759229 126.6603571429 48.6232000000
5000 1 54.3517687800 128.5778571429 49.5727000000
5001 2 56.5658491371 128.5778571429 48.6232000000
5002 1 57.6729419943 126.6603571429 49.5727000000
5003 2 59.8871277086 122.8253571429 52.7592000000
5004 1 60.9941152086 124.7428571429 51.8097000000
5005 2 63.2083009229 124.7428571429 52.7592000000
5006 1 64.3153937800 122.8253571429 51.8097000000
5007 2 59.8871277086 122.8253571429 48.6232000000
5008 1 60.9941152086 124.7428571429 49.5727000000
5009 2 63.2083009229 124.7428571429 48.6232000000
5010 1 64.3153937800 122.8253571429 49.5727000000
5011 2 59.8871277086 126.6603571429 52.7592000000
5012 1 60.9941152086 128.5778571429 51.8097000000
5013 2 63.2083009229 128.5778571429 52.7592000000
5014 1 64.3153937800 126.6603571429 51.8097000000
5015 1 60.9941152086 128.5778571429 49.5727000000
5016 2 63.2083009229 128.5778571429 48.6232000000
5017 1 64.3153937800 126.6603571429 49.5727000000
5018 2 66.5295056179 122.8253571429 52.7592000000
5019 1 67.6365984750 124.7428571429 51.8097000000
5020 1 70.9577716893 122.8253571429 51.8097000000
5021 2 66.5295056179 122.8253571429 48.6232000000
5022 1 67.6365984750 124.7428571429 49.5727000000
5023 2 69.8506788321 124.7428571429 48.6232000000
5024 1 70.9577716893 122.8253571429 49.5727000000
5025 2 66.5295056179 126.6603571429 52.7592000000
5026 1 67.6365984750 128.5778571429 51.8097000000
5027 2 69.8506788321 128.5778571429 52.7592000000
5028 1 70.9577716893 126.6603571429 51.8097000000
5029 2 66.5295056179 126.6603571429 48.6232000000
5030 1 67.6365984750 128.5778571429 49.5727000000
5031 2 69.8506788321 128.5778571429 48.6232000000
5032 1 70.9577716893 126.6603571429 49.5727000000
5033 2 73.1719574036 122.8253571429 52.7592000000
5034 1 74.2789449036 124.7428571429 51.8097000000
5035 2 76.4931306179 124.7428571429 52.7592000000
5036 1 77.6002234750 122.8253571429 51.8097000000
5037 2 73.1719574036 122.8253571429 48.6232000000
5038 1 74.2789449036 124.7428571429 49.5727000000
5039 2 76.4931306179 124.7428571429 48.6232000000
5040 1 77.6002234750 122.8253571429 49.5727000000
5041 2 73.1719574036 126.6603571429 52.7592000000
5042 1 74.2789449036 128.5778571429 51.8097000000
5043 2 76.4931306179 128.5778571429 52.7592000000
5044 1 77.6002234750 126.6603571429 51.8097000000
5045 2 73.1719574036 126.6603571429 48.6232000000
5046 1 74.2789449036 128.5778571429 49.5727000000
5047 2 76.4931306179 128.5778571429 48.6232000000
5048 1 77.6002234750 126.6603571429 49.5727000000
5049 2 79.8143353129 122.8253571429 52.7592000000
5050 1 80.9214281700 124.7428571429 51.8097000000
5051 2 83.1355085271 124.7428571429 52.7592000000
5052 1 84.2426013843 122.8253571429 51.8097000000
5053 2 79.8143353129 122.8253571429 48.6232000000
5054 1 80.9214281700 124.7428571429 49.5727000000
5055 2 83.1355085271 124.7428571429 48.6232000000
5056 1 84.2426013843 122.8253571429 49.5727000000
5057 2 79.8143353129 126.6603571429 52.7592000000
5058 1 80.9214281700 128.5778571429 51.8097000000
5059 2 83.1355085271 128.5778571429 52.7592000000
5060 1 84.2426013843 126.6603571429 51.8097000000
5061 1 80.9214281700 128.5778571429 49.5727000000
5062 2 83.1355085271 128.5778571429 48.6232000000
5063 1 84.2426013843 126.6603571429 49.5727000000
5064 1 87.5637745986 124.7428571429 51.8097000000
5065 2 89.7779603129 124.7428571429 52.7592000000
5066 1 90.8850531700 122.8253571429 51.8097000000
5067 2 86.4567870986 122.8253571429 48.6232000000
5068 1 87.5637745986 124.7428571429 49.5727000000
5069 2 89.7779603129 124.7428571429 48.6232000000
5070 1 90.8850531700 122.8253571429 49.5727000000
5071 2 86.4567870986 126.6603571429 52.7592000000
5072 1 87.5637745986 128.5778571429 51.8097000000
5073 2 89.7779603129 128.5778571429 52.7592000000
5074 1 90.8850531700 126.6603571429 51.8097000000
5075 2 86.4567870986 126.6603571429 48.6232000000
5076 1 87.5637745986 128.5778571429 49.5727000000
5077 2 89.7779603129 128.5778571429 48.6232000000
5078 1 90.8850531700 126.6603571429 49.5727000000
5079 1 94.2062578650 124.7428571429 51.8097000000
5080 2 96.4203382221 124.7428571429 52.7592000000
5081 1 97.5274310793 122.8253571429 51.8097000000
5082 2 93.0991650079 122.8253571429 48.6232000000
5083 1 94.2062578650 124.7428571429 49.5727000000
5084 2 96.4203382221 124.7428571429 48.6232000000
5085 1 97.5274310793 122.8253571429 49.5727000000
5086 2 93.0991650079 126.6603571429 52.7592000000
5087 1 94.2062578650 128.5778571429 51.8097000000
5088 2 96.4203382221 128.5778571429 52.7592000000
5089 1 97.5274310793 126.6603571429 51.8097000000
5090 2 93.0991650079 126.6603571429 48.6232000000
5091 1 94.2062578650 128.5778571429 49.5727000000
5092 2 96.4203382221 128.5778571429 48.6232000000
5093 1 97.5274310793 126.6603571429 49.5727000000
5094 2 99.7416167936 122.8253571429 52.7592000000
5095 1 100.8486042936 124.7428571429 51.8097000000
5096 2 103.0627900079 124.7428571429 52.7592000000
5097 1 104.1698828650 122.8253571429 51.8097000000
5098 2 99.7416167936 122.8253571429 48.6232000000
5099 1 100.8486042936 124.7428571429 49.5727000000
5100 2 103.0627900079 124.7428571429 48.6232000000
5101 1 104.1698828650 122.8253571429 49.5727000000
5102 2 99.7416167936 126.6603571429 52.7592000000
5103 1 100.8486042936 128.5778571429 51.8097000000
5104 1 104.1698828650 126.6603571429 51.8097000000
5105 2 99.7416167936 126.6603571429 48.6232000000
5106 1 100.8486042936 128.5778571429 49.5727000000
5107 2 103.0627900079 128.5778571429 48.6232000000
5108 1 104.1698828650 126.6603571429 49.5727000000
5109 2 106.3839947029 122.8253571429 52.7592000000
5110 1 107.4910875600 124.7428571429 51.8097000000
5111 2 109.7051679171 124.7428571429 52.7592000000
5112 1 110.8122607743 122.8253571429 51.8097000000
5113 1 107.4910875600 124.7428571429 49.5727000000
5114 2 109.7051679171 124.7428571429 48.6232000000
5115 1 110.8122607743 122.8253571429 49.5727000000
5116 2 106.3839947029 126.6603571429 52.7592000000
5117 1 107.4910875600 128.5778571429 51.8097000000
5118 1 110.8122607743 126.6603571429 51.8097000000
5119 2 106.3839947029 126.6603571429 48.6232000000
5120 1 107.4910875600 128.5778571429 49.5727000000
5121 2 109.7051679171 128.5778571429 48.6232000000
5122 1 110.8122607743 126.6603571429 49.5727000000
5123 2 113.0264464886 122.8253571429 52.7592000000
5124 1 114.1334339886 124.7428571429 51.8097000000
5125 2 116.3476197029 124.7428571429 52.7592000000
5126 1 117.4547125600 122.8253571429 51.8097000000
5127 2 113.0264464886 122.8253571429 48.6232000000
5128 1 114.1334339886 124.7428571429 49.5727000000
5129 2 116.3476197029 124.7428571429 48.6232000000
5130 1 117.4547125600 122.8253571429 49.5727000000
5131 2 113.0264464886 126.6603571429 52.7592000000
5132 1 114.1334339886 128.5778571429 51.8097000000
5133 2 116.3476197029 128.5778571429 52.7592000000
5134 1 117.4547125600 126.6603571429 51.8097000000
5135 2 113.0264464886 126.6603571429 48.6232000000
5136 1 114.1334339886 128.5778571429 49.5727000000
5137 2 116.3476197029 128.5778571429 48.6232000000
5138 1 117.4547125600 126.6603571429 49.5727000000
5139 2 119.6688243979 122.8253571429 52.7592000000
5140 1 120.7759172550 124.7428571429 51.8097000000
5141 2 122.9899976121 124.7428571429 52.7592000000
5142 1 124.0970904693 122.8253571429 51.8097000000
5143 1 120.7759172550 124.7428571429 49.5727000000
5144 2 122.9899976121 124.7428571429 48.6232000000
5145 1 124.0970904693 122.8253571429 49.5727000000
5146 2 119.6688243979 126.6603571429 52.7592000000
5147 1 120.7759172550 128.5778571429 51.8097000000
5148 2 122.9899976121 128.5778571429 52.7592000000
5149 1 124.0970904693 126.6603571429 51.8097000000
5150 2 119.6688243979 126.6603571429 48.6232000000
5151 1 120.7759172550 128.5778571429 49.5727000000
5152 2 122.9899976121 128.5778571429 48.6232000000
5153 1 124.0970904693 126.6603571429 49.5727000000
5154 1 127.4182636836 124.7428571429 51.8097000000
5155 2 129.6324493979 124.7428571429 52.7592000000
5156 1 130.7395422550 122.8253571429 51.8097000000
5157 2 126.3112761836 122.8253571429 48.6232000000
5158 1 127.4182636836 124.7428571429 49.5727000000
5159 2 129.6324493979 124.7428571429 48.6232000000
5160 1 130.7395422550 122.8253571429 49.5727000000
5161 2 126.3112761836 126.6603571429 52.7592000000
5162 1 127.4182636836 128.5778571429 51.8097000000
5163 2 129.6324493979 128.5778571429 52.7592000000
5164 1 130.7395422550 126.6603571429 51.8097000000
5165 2 126.3112761836 126.6603571429 48.6232000000
5166 1 127.4182636836 128.5778571429 49.5727000000
5167 2 129.6324493979 128.5778571429 48.6232000000
5168 1 130.7395422550 126.6603571429 49.5727000000
5169 2 0.1053571429 130.4953571429 52.7592000000
5170 1 1.2124500000 132.4128571429 51.8097000000
5171 2 3.4265303571 132.4128571429 52.7592000000
5172 1 4.5336232143 130.4953571429 51.8097000000
5173 1 1.2124500000 132.4128571429 49.5727000000
5174 2 3.4265303571 132.4128571429 48.6232000000
5175 1 4.5336232143 130.4953571429 49.5727000000
5176 2 0.1053571429 134.3303571429 52.7592000000
5177 1 1.2124500000 136.2478571429 51.8097000000
5178 2 3.4265303571 136.2478571429 52.7592000000
5179 1 4.5336232143 134.3303571429 51.8097000000
5180 2 0.1053571429 134.3303571429 48.6232000000
5181 1 1.2124500000 136.2478571429 49.5727000000
5182 2 3.4265303571 136.2478571429 48.6232000000
5183 1 4.5336232143 134.3303571429 49.5727000000
5184 1 7.8547964286 132.4128571429 51.8097000000
5185 2 10.0689821429 132.4128571429 52.7592000000
5186 1 11.1760750000 130.4953571429 51.8097000000
5187 2 6.7478089286 130.4953571429 48.6232000000
5188 1 7.8547964286 132.4128571429 49.5727000000
5189 2 10.0689821429 132.4128571429 48.6232000000
5190 1 11.1760750000 130.4953571429 49.5727000000
5191 2 6.7478089286 134.3303571429 52.7592000000
5192 1 7.8547964286 136.2478571429 51.8097000000
5193 2 10.0689821429 136.2478571429 52.7592000000
5194 1 11.1760750000 134.3303571429 51.8097000000
5195 2 6.7478089286 134.3303571429 48.6232000000
5196 1 7.8547964286 136.2478571429 49.5727000000
5197 1 11.1760750000 134.3303571429 49.5727000000
5198 2 13.3901868379 130.4953571429 52.7592000000
5199 1 14.4972796950 132.4128571429 51.8097000000
5200 2 16.7113600521 132.4128571429 52.7592000000
5201 1 17.8184529093 130.4953571429 51.8097000000
5202 2 13.3901868379 130.4953571429 48.6232000000
5203 1 14.4972796950 132.4128571429 49.5727000000
5204 2 16.7113600521 132.4128571429 48.6232000000
5205 1 17.8184529093 130.4953571429 49.5727000000
5206 2 13.3901868379 134.3303571429 52.7592000000
5207 1 14.4972796950 136.2478571429 51.8097000000
5208 2 16.7113600521 136.2478571429 52.7592000000
5209 1 17.8184529093 134.3303571429 51.8097000000
5210 2 13.3901868379 134.3303571429 48.6232000000
5211 1 14.4972796950 136.2478571429 49.5727000000
5212 2 16.7113600521 136.2478571429 48.6232000000
5213 1 17.8184529093 134.3303571429 49.5727000000
5214 2 20.0326386236 130.4953571429 52.7592000000
5215 1 21.1396261236 132.4128571429 51.8097000000
5216 1 24.4609046950 130.4953571429 51.8097000000
5217 2 20.0326386236 130.4953571429 48.6232000000
5218 1 21.1396261236 132.4128571429 49.5727000000
5219 2 23.3538118379 132.4128571429 48.6232000000
5220 1 24.4609046950 130.4953571429 49.5727000000
5221 2 20.0326386236 134.3303571429 52.7592000000
5222 1 21.1396261236 136.2478571429 51.8097000000
5223 2 23.3538118379 136.2478571429 52.7592000000
5224 1 24.4609046950 134.3303571429 51.8097000000
5225 2 20.0326386236 134.3303571429 48.6232000000
5226 1 21.1396261236 136.2478571429 49.5727000000
5227 2 23.3538118379 136.2478571429 48.6232000000
5228 1 24.4609046950 134.3303571429 49.5727000000
5229 2 26.6750165329 130.4953571429 52.7592000000
5230 1 27.7821093900 132.4128571429 51.8097000000
5231 2 29.9961897471 132.4128571429 52.7592000000
5232 1 31.1032826043 130.4953571429 51.8097000000
5233 2 26.6750165329 130.4953571429 48.6232000000
5234 1 27.7821093900 132.4128571429 49.5727000000
5235 1 31.1032826043 130.4953571429 49.5727000000
5236 2 26.6750165329 134.3303571429 52.7592000000
5237 1 27.7821093900 136.2478571429 51.8097000000
5238 2 29.9961897471 136.2478571429 52.7592000000
5239 1 31.1032826043 134.3303571429 51.8097000000
5240 2 26.6750165329 134.3303571429 48.6232000000
5241 1 27.7821093900 136.2478571429 49.5727000000
5242 2 29.9961897471 136.2478571429 48.6232000000
5243 1 31.1032826043 134.3303571429 49.5727000000
5244 2 33.3174683186 130.4953571429 52.7592000000
5245 1 34.4244558186 132.4128571429 51.8097000000
5246 2 36.6386415329 132.4128571429 52.7592000000
5247 1 37.7457343900 130.4953571429 51.8097000000
5248 2 33.3174683186 130.4953571429 48.6232000000
5249 1 34.4244558186 132.4128571429 49.5727000000
5250 2 36.6386415329 132.4128571429 48.6232000000
5251 1 37.7457343900 130.4953571429 49.5727000000
5252 2 33.3174683186 134.3303571429 52.7592000000
5253 1 34.4244558186 136.2478571429 51.8097000000
5254 2 36.6386415329 136.2478571429 52.7592000000
5255 1 37.7457343900 134.3303571429 51.8097000000
5256 2 33.3174683186 134.3303571429 48.6232000000
5257 1 34.4244558186 136.2478571429 49.5727000000
5258 2 36.6386415329 136.2478571429 48.6232000000
5259 1 37.7457343900 134.3303571429 49.5727000000
5260 2 39.9598462279 130.4953571429 52.7592000000
5261 1 41.0669390850 132.4128571429 51.8097000000
5262 2 43.2810194421 132.4128571429 52.7592000000
5263 1 44.3881122993 130.4953571429 51.8097000000
5264 1 41.0669390850 132.4128571429 49.5727000000
5265 2 43.2810194421 132.4128571429 48.6232000000
5266 1 44.3881122993 130.4953571429 49.5727000000
5267 2 39.9598462279 134.3303571429 52.7592000000
5268 1 41.0669390850 136.2478571429 51.8097000000
5269 2 43.2810194421 136.2478571429 52.7592000000
5270 1 44.3881122993 134.3303571429 51.8097000000
5271 2 39.9598462279 134.3303571429 48.6232000000
5272 1 41.0669390850 136.2478571429 49.5727000000
5273 2 43.2810194421 136.2478571429 48.6232000000
5274 1 44.3881122993 134.3303571429 49.5727000000
5275 2 46.6022980136 130.4953571429 52.7592000000
5276 1 47.7092855136 132.4128571429 51.8097000000
5277 2 49.9234712279 132.4128571429 52.7592000000
5278 1 51.0305640850 130.4953571429 51.8097000000
5279 1 47.7092855136 132.4128571429 49.5727000000
5280 2 49.9234712279 132.4128571429 48.6232000000
5281 1 51.0305640850 130.4953571429 49.5727000000
5282 2 46.6022980136 134.3303571429 52.7592000000
5283 1 47.7092855136 136.2478571429 51.8097000000
5284 2 49.9234712279 136.2478571429 52.7592000000
5285 1 51.0305640850 134.3303571429 51.8097000000
5286 2 46.6022980136 134.3303571429 48.6232000000
5287 1 47.7092855136 136.2478571429 49.5727000000
5288 2 49.9234712279 136.2478571429 48.6232000000
5289 1 51.0305640850 134.3303571429 49.5727000000
5290 2 53.2446759229 130.4953571429 52.7592000000
5291 1 54.3517687800 132.4128571429 51.8097000000
5292 1 57.6729419943 130.4953571429 51.8097000000
5293 2 53.2446759229 130.4953571429 48.6232000000
5294 1 54.3517687800 132.4128571429 49.5727000000
5295 2 56.5658491371 132.4128571429 48.6232000000
5296 1 57.6729419943 130.4953571429 49.5727000000
5297 2 53.2446759229 134.3303571429 52.7592000000
5298 1 54.3517687800 136.2478571429 51.8097000000
5299 2 56.5658491371 136.2478571429 52.7592000000
5300 1 57.6729419943 134.3303571429 51.8097000000
5301 2 53.2446759229 134.3303571429 48.6232000000
5302 1 54.3517687800 136.2478571429 49.5727000000
5303 2 56.5658491371 136.2478571429 48.6232000000
5304 1 57.6729419943 134.3303571429 49.5727000000
5305 2 59.8871277086 130.4953571429 52.7592000000
5306 1 60.9941152086 132.4128571429 51.8097000000
5307 1 64.3153937800 130.4953571429 51.8097000000
5308 2 59.8871277086 130.4953571429 48.6232000000
5309 1 60.9941152086 132.4128571429 49.5727000000
5310 2 63.2083009229 132.4128571429 48.6232000000
5311 1 64.3153937800 130.4953571429 49.5727000000
5312 2 59.8871277086 134.3303571429 52.7592000000
5313 1 60.9941152086 136.2478571429 51.8097000000
5314 2 63.2083009229 136.2478571429 52.7592000000
5315 1 64.3153937800 134.3303571429 51.8097000000
5316 2 59.8871277086 134.3303571429 48.6232000000
5317 1 60.9941152086 136.2478571429 49.5727000000
5318 2 63.2083009229 136.2478571429 48.6232000000
5319 1 64.3153937800 134.3303571429 49.5727000000
5320 2 66.5295056179 130.4953571429 52.7592000000
5321 1 67.6365984750 132.4128571429 51.8097000000
5322 2 69.8506788321 132.4128571429 52.7592000000
5323 1 70.9577716893 130.4953571429 51.8097000000
5324 2 66.5295056179 130.4953571429 48.6232000000
5325 1 67.6365984750 132.4128571429 49.5727000000
5326 1 70.9577716893 130.4953571429 49.5727000000
5327 2 66.5295056179 134.3303571429 52.7592000000
5328 1 67.6365984750 136.2478571429 51.8097000000
5329 2 69.8506788321 136.2478571429 52.7592000000
5330 1 70.9577716893 134.3303571429 51.8097000000
5331 2 66.5295056179 134.3303571429 48.6232000000
5332 1 67.6365984750 136.2478571429 49.5727000000
5333 2 69.8506788321 136.2478571429 48.6232000000
5334 1 70.9577716893 134.3303571429 49.5727000000
5335 2 73.1719574036 130.4953571429 52.7592000000
5336 1 74.2789449036 132.4128571429 51.8097000000
5337 1 77.6002234750 130.4953571429 51.8097000000
5338 2 73.1719574036 130.4953571429 48.6232000000
5339 1 74.2789449036 132.4128571429 49.5727000000
5340 2 76.4931306179 132.4128571429 48.6232000000
5341 1 77.6002234750 130.4953571429 49.5727000000
5342 2 73.1719574036 134.3303571429 52.7592000000
5343 1 74.2789449036 136.2478571429 51.8097000000
5344 2 76.4931306179 136.2478571429 52.7592000000
5345 1 77.6002234750 134.3303571429 51.8097000000
5346 2 73.1719574036 134.3303571429 48.6232000000
5347 1 74.2789449036 136.2478571429 49.5727000000
5348 2 76.4931306179 136.2478571429 48.6232000000
5349 1 77.6002234750 134.3303571429 49.5727000000
5350 2 79.8143353129 130.4953571429 52.7592000000
5351 1 80.9214281700 132.4128571429 51.8097000000
5352 2 83.1355085271 132.4128571429 52.7592000000
5353 1 84.2426013843 130.4953571429 51.8097000000
5354 2 79.8143353129 130.4953571429 48.6232000000
5355 1 80.9214281700 132.4128571429 49.5727000000
5356 2 83.1355085271 132.4128571429 48.6232000000
5357 1 84.2426013843 130.4953571429 49.5727000000
5358 2 79.8143353129 134.3303571429 52.7592000000
5359 1 80.9214281700 136.2478571429 51.8097000000
5360 2 83.1355085271 136.2478571429 52.7592000000
5361 1 84.2426013843 134.3303571429 51.8097000000
5362 2 79.8143353129 134.3303571429 48.6232000000
5363 1 80.9214281700 136.2478571429 49.5727000000
5364 2 83.1355085271 136.2478571429 48.6232000000
5365 1 84.2426013843 134.3303571429 49.5727000000
5366 2 86.4567870986 130.4953571429 52.7592000000
5367 1 87.5637745986 132.4128571429 51.8097000000
5368 2 89.7779603129 132.4128571429 52.7592000000
5369 1 90.8850531700 130.4953571429 51.8097000000
5370 2 86.4567870986 130.4953571429 48.6232000000
5371 1 87.5637745986 132.4128571429 49.5727000000
5372 2 89.7779603129 132.4128571429 48.6232000000
5373 1 90.8850531700 130.4953571429 49.5727000000
5374 2 86.4567870986 134.3303571429 52.7592000000
5375 1 87.5637745986 136.2478571429 51.8097000000
5376 2 89.7779603129 136.2478571429 52.7592000000
5377 1 90.8850531700 134.3303571429 51.8097000000
5378 1 87.5637745986 136.2478571429 49.5727000000
5379 2 89.7779603129 136.2478571429 48.6232000000
5380 1 90.8850531700 134.3303571429 49.5727000000
5381 2 93.0991650079 130.4953571429 52.7592000000
5382 1 94.2062578650 132.4128571429 51.8097000000
5383 2 96.4203382221 132.4128571429 52.7592000000
5384 1 97.5274310793 130.4953571429 51.8097000000
5385 2 93.0991650079 130.4953571429 48.6232000000
5386 1 94.2062578650 132.4128571429 49.5727000000
5387 2 96.4203382221 132.4128571429 48.6232000000
5388 1 97.5274310793 130.4953571429 49.5727000000
5389 2 93.0991650079 134.3303571429 52.7592000000
5390 1 94.2062578650 136.2478571429 51.8097000000
5391 1 97.5274310793 134.3303571429 51.8097000000
5392 2 93.0991650079 134.3303571429 48.6232000000
5393 1 94.2062578650 136.2478571429 49.5727000000
5394 2 96.4203382221 136.2478571429 48.6232000000
5395 1 97.5274310793 134.3303571429 49.5727000000
5396 2 99.7416167936 130.4953571429 52.7592000000
5397 1 100.8486042936 132.4128571429 51.8097000000
5398 2 103.0627900079 132.4128571429 52.7592000000
5399 1 104.1698828650 130.4953571429 51.8097000000
5400 2 99.7416167936 130.4953571429 48.6232000000
5401 1 100.8486042936 132.4128571429 49.5727000000
5402 2 103.0627900079 132.4128571429 48.6232000000
5403 1 104.1698828650 130.4953571429 49.5727000000
5404 2 99.7416167936 134.3303571429 52.7592000000
5405 1 100.8486042936 136.2478571429 51.8097000000
5406 2 103.0627900079 136.2478571429 52.7592000000
5407 1 104.1698828650 134.3303571429 51.8097000000
5408 2 99.7416167936 134.3303571429 48.6232000000
5409 1 100.8486042936 136.2478571429 49.5727000000
5410 1 104.1698828650 134.3303571429 49.5727000000
5411 2 106.3839947029 130.4953571429 52.7592000000
5412 1 107.4910875600 132.4128571429 51.8097000000
5413 2 109.7051679171 132.4128571429 52.7592000000
5414 1 110.8122607743 130.4953571429 51.8097000000
5415 2 106.3839947029 130.4953571429 48.6232000000
5416 1 107.4910875600 132.4128571429 49.5727000000
5417 2 109.7051679171 132.4128571429 48.6232000000
5418 1 110.8122607743 130.4953571429 49.5727000000
5419 2 106.3839947029 134.3303571429 52.7592000000
5420 1 107.4910875600 136.2478571429 51.8097000000
5421 2 109.7051679171 136.2478571429 52.7592000000
5422 1 110.8122607743 134.3303571429 51.8097000000
5423 2 106.3839947029 134.3303571429 48.6232000000
5424 1 107.4910875600 136.2478571429 49.5727000000
5425 2 109.7051679171 136.2478571429 48.6232000000
5426 1 110.8122607743 134.3303571429 49.5727000000
5427 2 113.0264464886 130.4953571429 52.7592000000
5428 1 114.1334339886 132.4128571429 51.8097000000
5429 2 116.3476197029 132.4128571429 52.7592000000
5430 1 117.4547125600 130.4953571429 51.8097000000
5431 2 113.0264464886 130.4953571429 48.6232000000
5432 1 114.1334339886 132.4128571429 49.5727000000
5433 2 116.3476197029 132.4128571429 48.6232000000
5434 1 117.4547125600 130.4953571429 49.5727000000
5435 2 113.0264464886 134.3303571429 52.7592000000
5436 1 114.1334339886 136.2478571429 51.8097000000
5437 2 116.3476197029 136.2478571429 52.7592000000
5438 1 117.4547125600 134.3303571429 51.8097000000
5439 1 114.1334339886 136.2478571429 49.5727000000
5440 2 116.3476197029 136.2478571429 48.6232000000
5441 1 117.4547125600 134.3303571429 49.5727000000
5442 2 119.6688243979 130.4953571429 52.7592000000
5443 1 120.7759172550 132.4128571429 51.8097000000
5444 2 122.9899976121 132.4128571429 52.7592000000
5445 1 124.0970904693 130.4953571429 51.8097000000
5446 2 119.6688243979 130.4953571429 48.6232000000
5447 1 120.7759172550 132.4128571429 49.5727000000
5448 2 122.9899976121 132.4128571429 48.6232000000
5449 1 124.0970904693 130.4953571429 49.5727000000
5450 2 119.6688243979 134.3303571429 52.7592000000
5451 1 120.7759172550 136.2478571429 51.8097000000
5452 2 122.9899976121 136.2478571429 52.7592000000
5453 1 124.0970904693 134.3303571429 51.8097000000
5454 2 119.6688243979 134.3303571429 48.6232000000
5455 1 120.7759172550 136.2478571429 49.5727000000
5456 2 122.9899976121 136.2478571429 48.6232000000
5457 1 124.0970904693 134.3303571429 49.5727000000
5458 2 126.3112761836 130.4953571429 52.7592000000
5459 1 127.4182636836 132.4128571429 51.8097000000
5460 2 129.6324493979 132.4128571429 52.7592000000
5461 1 130.7395422550 130.4953571429 51.8097000000
5462 2 126.3112761836 130.4953571429 48.6232000000
5463 1 127.4182636836 132.4128571429 49.5727000000
5464 2 129.6324493979 132.4128571429 48.6232000000
5465 1 130.7395422550 130.4953571429 49.5727000000
5466 1 127.4182636836 136.2478571429 51.8097000000
5467 2 129.6324493979 136.2478571429 52.7592000000
5468 1 130.7395422550 134.3303571429 51.8097000000
5469 2 126.3112761836 134.3303571429 48.6232000000
5470 1 127.4182636836 136.2478571429 49.5727000000
5471 2 129.6324493979 136.2478571429 48.6232000000
5472 1 130.7395422550 134.3303571429 49.5727000000
