echo            	both
units           	metal
dimension       	3
atom_style      	atomic
neighbor        	5.0 bin
neigh_modify    	delay 0 every 1 check yes one 10000 page 100000    

#2 structure

boundary        	p p p
read_data       	GaS.lmp

#3 potentials

pair_style      	tersoff
pair_coeff      	* * GaS.tersoff     Ga S

timestep        	0.0005  # 0.5 fs timestep

#4 optimize at 0 K

dump            	1 all custom 50000 dump.minimization id type x y z
fix		        	1 all box/relax x 0.0 y 0.0
min_style       	cg
min_modify      	line quadratic
minimize        	1.0e-10 1.0e-6 100000 1000000
unfix           	1

# ---------- Stage 2: fixed-box FIRE relaxation ----------
min_style       	fire
minimize        	1.0e-10 1.0e-6 100000 1000000

undump          	1

#5 optimize at 300K

compute         	peratom all pe/atom
reset_timestep  	0
timestep        	0.0005

velocity        	all create 300 67641 rot yes mom yes dist gaussian

fix             	3 all npt temp 300 300 0.05 iso 0.0 0.0 0.5                        #x 0.0 0.0 0.5 y 0.0 0.0 0.5 
thermo          	1000
thermo_style    	custom step temp  lx ly lz pxx pyy pzz etotal
run             	1000000
unfix           	3

#erate = (final_length - initial_length)/(initial_length * total_time)     
#You can compute a suitable erate so total strain = 4% by the end
dump            	1 all custom 50000 dump.tension id type x y z c_peratom fx fy fz vx vy vz   
fix             	6 all npt temp 300 300 10 y 0.0 0.0 10 z 0.0 0.0 10                                   
fix             	deformX all deform 1 x erate 0.0001 units box remap x  
run             	1200000
unfix				6
unfix           	deformX
write_data      	GaS_6%_strain_eq.lmp

# Define the regions for heat source and sinks

region       		hot block -19.64348011986911426 34.55135900027118444  INF INF  INF INF units box  
region       		cold block 988.38052751474044156 1042.57536663488074026  INF INF  INF INF units box 

##region for fixed end

region          	A1 block INF -19.64348011986911426  INF INF  INF INF units box
region          	A2 block 1042.57536663488074026 INF  INF INF  INF INF units box
region          	gFixed union 2 A1 A2

group            	hot region hot
group            	cold region cold
group            	A1 region A1 
group            	A2 region A2
group            	gFixed region gFixed
group            	gMobile subtract all gFixed

undump			 	1

##Applying spring force to make the ends fixed

velocity         	gFixed set 0.0 0.0 0.0
fix              	fixEnds gFixed setforce 0.0 0.0 0.0

fix             	4 gMobile nvt temp 300 300 0.05
thermo          	1000
thermo_style    	custom step temp  lx ly lz pxx pyy pzz etotal
run             	1000000
unfix           	4

# Switch to NVE ensemble for 500 ps

change_box      	all boundary p p f remap

fix             	5 gMobile nve
run             	1000000

# Apply NEMD with Langevin thermostat to heat source and sinks
# Set temperatures for heat source and sinks (heat source at 315K, sinks at 285K)
#computation

variable       		kB        equal 0.00008617
variable       		t         equal 300
variable       		tlo       equal 270
variable       		thi       equal 330
variable       		tdamp     equal 0.05

compute        		THSource  hot  temp
compute        		THsink    cold  temp

timestep       		0.0005	

# 2nd equilibration run
# Keep the rest of the system in NVE (to conserve energy)

fix             	hot hot langevin ${thi} ${thi} ${tdamp} 79431 tally yes zero yes 
fix             	cold cold langevin ${tlo} ${tlo} ${tdamp} 65316 tally yes zero yes 
fix_modify      	hot temp THSource
fix_modify      	cold temp THsink

variable        	tdiff equal c_THSource-c_THsink
variable Time    	equal step
variable EL      	equal f_hot
variable ER      	equal f_cold

thermo_style    	custom step temp c_THSource c_THsink f_hot f_cold v_tdiff 
thermo_modify   	colname c_THSource Temp_hot colname c_THsink Temp_cold &
					colname f_hot E_hot colname f_cold E_cold &
					colname v_tdiff dTemp_step  

thermo          	1000
run             	1000000

#3rd stage (NEMD)

reset_timestep  	0

unfix           	hot
unfix           	cold

compute         	ke all ke/atom
variable        	temp atom c_ke/(1.5*${kB})

fix             	hot hot langevin ${thi} ${thi} ${tdamp} 12345 tally yes zero yes 
fix             	cold cold langevin ${tlo} ${tlo} ${tdamp} 54321 tally yes zero yes
fix_modify      	hot temp THSource
fix_modify      	cold temp THsink

fix             	ave gMobile ave/time 10 100 1000 v_tdiff ave running  
thermo_style    	custom step temp c_THSource c_THsink f_hot f_cold v_tdiff f_ave
thermo_modify   	colname c_THSource Temp_hot colname c_THsink Temp_cold &
					colname f_hot E_hot colname f_cold E_cold &
					colname v_tdiff dTemp_step colname f_ave dTemp
				
compute         	layers gMobile chunk/atom bin/1d x lower 0.01 units reduced   
fix             	temp_profile gMobile ave/chunk 10 100 1000 layers v_temp file profile.langevin 
fix 				E_out gMobile print 1000 "${Time}  ${EL}  ${ER}" file Ener_equ.dat title "Time  E_hot  E_cold" screen no

dump            	1 all custom 50000 dump.optimize id type x y z c_peratom fx fy fz vx vy vz
            
run             	12000000   # 8 ns for data collection

# kappa      = 12.947 W·m⁻¹·K⁻¹
